NAME: Reserpine
PRECURSORMZ: 609.280657
PRECURSORTYPE: [M+H]+
INSTRUMENTTYPE: LC-ESI-ITFT
INSTRUMENT: LTQ Orbitrap XL, Thermo Scientfic; HP-1100 HPLC, Agilent
SMILES: CO[C@H]1[C@@H](C[C@@H]2CN3CCC4=C([C@H]3C[C@@H]2[C@@H]1C(=O)OC)NC5=C4C=CC(=C5)OC)OC(=O)C6=CC(=C(C(=C6)OC)OC)OC
INCHI: InChI=1S/C33H40N2O9/c1-38-19-7-8-20-21-9-10-35-16-18-13-27(44-32(36)17-11-25(39-2)30(41-4)26(12-17)40-3)31(42-5)28(33(37)43-6)22(18)15-24(35)29(21)34-23(20)14-19/h7-8,11-12,14,18,22,24,27-28,31,34H,9-10,13,15-16H2,1-6H3/t18-,22+,24-,27-,28+,31+/m1/s1
INCHIKEY: QEVHRUUCFGRFIF-MDEJGZGSSA-N
COLLISIONENERGY: 35
FORMULA: C33H40N2O9
RETENTIONTIME: 754.086
IONMODE: Positive
Links: MassBank CE000146; PUBCHEM CID;
Comment: 
Num Peaks: 26
174.0883	9
192.1014	9
195.0649	67
198.6288	6
224.1274	16
226.8586	6
228.3888	6
236.1267	28
285.5588	5
337.1312	11
349.664	7
365.185	69
368.1479	80
379.4699	6
380.185	9
397.2104	295
404.1685	14
423.6576	7
434.1785	18
436.1956	171
448.1951	999
449.1981	18
487.2212	6
577.2516	133
591.2701	13
592.2452	13
