NAME: PC 16:0_18:1
PRECURSORMZ: 760.5850830078125
PRECURSORTYPE: [M+H]+
RETENTIONTIME: 9.760000228881836
FORMULA: C42H82NO8P
ONTOLOGY: 
SMILES: O=C(OCC(OC(=O)CCCCCCCC=CCCCCCCCC)COP(=O)([O-])OCC[N+](C)(C)C)CCCCCCCCCCCCCCC
INCHIKEY: WTJKGGKOPKCXLL-UHFFFAOYSA-N
INSTRUMENTTYPE: 
COLLISIONENERGY: 0
IONMODE: Positive
DatabaseUniqueIdentifier: 
Comment: 
Num Peaks: 6
184.0733184814453	999
478.3291931152344	50
496.3397521972656	50
504.3448486328125	50
522.3554077148438	50
760.5850830078125	300

NAME: PC 34:1
PRECURSORMZ: 782.5670166015625
PRECURSORTYPE: [M+Na]+
RETENTIONTIME: 9.819999694824219
FORMULA: C42H82NO8P
ONTOLOGY: 
SMILES: O=C(OCC(OC(=O)CCCCCCCCCCCCCCCCCC=CCCCCCCCC)COP(=O)([O-])OCC[N+](C)(C)C)CCCCC
INCHIKEY: STQHPHAYIQEJQM-UHFFFAOYSA-N
INSTRUMENTTYPE: 
COLLISIONENERGY: 0
IONMODE: Positive
DatabaseUniqueIdentifier: 
Comment: 
Num Peaks: 6
86.09642791748047	100
146.9817657470703	400
577.51904296875	400
599.5009765625	600
723.4935302734375	500
782.5670166015625	999

