NAME: AAHFA 20:4/16:0;O
PRECURSORMZ: 557.4575
PRECURSORTYPE: [M-H]-
IONMODE: Negative
FORMULA: C36H62O4
SMILES: O=C(OC(C(=O)O)CCCCCCCCCCCCCC)CCCCCCC=CCC=CCC=CCC=CCC
INCHIKEY: CTYKEAIPCPWCGW-UHFFFAOYSA-N
COMPOUNDCLASS: FAHFA
RETENTIONTIME: 
COMMENT: 
Num Peaks: 5
557.457534	5
303.232954	500
271.227868	999
253.217304	800
225.222389	500

NAME: FA 18:1(2OH)
PRECURSORMZ: 297.2435
PRECURSORTYPE: [M-H]-
IONMODE: Negative
FORMULA: C18H34O3
SMILES: O=C(O)C(O)CCCCCCC=CCCCCCCCC
INCHIKEY: JBSOOFITVPOOSY-UHFFFAOYSA-N
COMPOUNDCLASS: OxFA
RETENTIONTIME: 
COMMENT: 
Num Peaks: 3
297.243519	500
279.232954	50
251.238039	999

NAME: DMEDFAHFA 16:0/20:4;O
PRECURSORMZ: 629.5616
PRECURSORTYPE: [M+H]+
IONMODE: Positive
FORMULA: C40H72N2O3
SMILES: O=C(OC(C=CCC=CCCCC(=O)NCCN(C)C)C=CCC=CCCCCC)CCCCCCCCCCCCCCC
INCHIKEY: XGZHKVZMUBPPDN-UHFFFAOYSA-N
COMPOUNDCLASS: DMEDFAHFA
RETENTIONTIME: 
COMMENT: 
Num Peaks: 4
629.561571	999
584.503721	50
373.32134	500
328.263491	999

NAME: DMEDFA 18:1
PRECURSORMZ: 353.3526
PRECURSORTYPE: [M+H]+
IONMODE: Positive
FORMULA: C22H44N2O
SMILES: O=C(NCCN(C)C)CCCCCCCC=CCCCCCCCC
INCHIKEY: XBAWSQDWPKWYFF-UHFFFAOYSA-N
COMPOUNDCLASS: DMEDFA
RETENTIONTIME: 
COMMENT: 
Num Peaks: 2
353.35264	999
308.294791	500

NAME: DMEDFA 18:1;O
PRECURSORMZ: 369.3476
PRECURSORTYPE: [M+H]+
IONMODE: Positive
FORMULA: C22H44N2O2
SMILES: O=C(NCCN(C)C)CCCCCCC(O)C=CCCCCCCCC
INCHIKEY: NUSYXOMNCXHXCN-UHFFFAOYSA-N
COMPOUNDCLASS: DMEDOxFA
RETENTIONTIME: 
COMMENT: 
Num Peaks: 3
369.347555	999
324.289706	500
306.279141	500

NAME: DMEDFA 18:1;O2
PRECURSORMZ: 385.3425
PRECURSORTYPE: [M+H]+
IONMODE: Positive
FORMULA: C22H44N2O3
SMILES: O=C(NCCN(C)C)CCCCCC(O)C=CC(O)CCCCCCCC
INCHIKEY: ZHQXWQDOWCHWIE-UHFFFAOYSA-N
COMPOUNDCLASS: DMEDOxFA
RETENTIONTIME: 
COMMENT: 
Num Peaks: 3
385.34247	999
340.28462	500
322.274056	500

NAME: DMEDFA 18:1;O3
PRECURSORMZ: 401.3374
PRECURSORTYPE: [M+H]+
IONMODE: Positive
FORMULA: C22H44N2O4
SMILES: O=C(NCCN(C)C)CCCC(O)CCC(O)C=CCC(O)CCCCCC
INCHIKEY: VOLJIHILERTVHY-UHFFFAOYSA-N
COMPOUNDCLASS: DMEDOxFA
RETENTIONTIME: 
COMMENT: 
Num Peaks: 3
401.337384	999
356.279535	500
338.26897	500

NAME: DMEDFA 18:1;O4
PRECURSORMZ: 417.3323
PRECURSORTYPE: [M+H]+
IONMODE: Positive
FORMULA: C22H44N2O5
SMILES: O=C(NCCN(C)C)CCCC(O)CCC(O)C=CCC(O)CCCCCCO
INCHIKEY: HTYQAXACDMNMAP-UHFFFAOYSA-N
COMPOUNDCLASS: DMEDOxFA
RETENTIONTIME: 
COMMENT: 
Num Peaks: 3
417.332299	999
372.27445	500
354.263885	500

NAME: FAHFA 20:4/16:0;O
PRECURSORMZ: 557.4575
PRECURSORTYPE: [M-H]-
IONMODE: Negative
FORMULA: C36H62O4
SMILES: O=C(O)CCCCCCC(OC(=O)CCCCCCC=CCC=CCC=CCC=CCC)CCCCCCCC
INCHIKEY: DTDMWDQEYJCLBR-UHFFFAOYSA-N
COMPOUNDCLASS: FAHFA
RETENTIONTIME: 
COMMENT: 
Num Peaks: 4
557.457534	50
303.232954	999
271.227868	150
253.217304	50

NAME: FA 18:1
PRECURSORMZ: 281.2486
PRECURSORTYPE: [M-H]-
IONMODE: Negative
FORMULA: C18H34O2
SMILES: O=C(O)CCCCCCCC=CCCCCCCCC
INCHIKEY: ZQPPMHVWECSIRJ-UHFFFAOYSA-N
COMPOUNDCLASS: FA
RETENTIONTIME: 
COMMENT: 
Num Peaks: 1
281.248604	999

NAME: NAOrn 16:0;O(FA 20:4)
PRECURSORMZ: 673.5514
PRECURSORTYPE: [M+H]+
IONMODE: Positive
FORMULA: C41H72N2O5
SMILES: O=C(OC(CCCCCCC(=O)NC(C(=O)O)CCCN)CCCCCCCC)CCCCCCC=CCC=CCC=CCC=CCC
INCHIKEY: JIMLHDNVQBWECP-UHFFFAOYSA-N
COMPOUNDCLASS: NAOrn
RETENTIONTIME: 
COMMENT: 
Num Peaks: 7
673.5514	300
369.31117	300
351.300605	500
237.221292	100
133.097154	50
115.086589	999
70.065126	500

NAME: NAOrn 18:1
PRECURSORMZ: 397.3425
PRECURSORTYPE: [M+H]+
IONMODE: Positive
FORMULA: C23H44N2O3
SMILES: O=C(NC(C(=O)O)CCCN)CCCCCCCC=CCCCCCCCC
INCHIKEY: TUILUNYVOJGATE-UHFFFAOYSA-N
COMPOUNDCLASS: NAOrn
RETENTIONTIME: 
COMMENT: 
Num Peaks: 3
397.34247	1
115.086589	800
70.065126	999

NAME: NAOrn 18:1;O
PRECURSORMZ: 413.3374
PRECURSORTYPE: [M+H]+
IONMODE: Positive
FORMULA: C23H44N2O4
SMILES: O=C(O)C(NC(=O)CC(O)CCCCCC=CCCCCCCCC)CCCN
INCHIKEY: BYNYKTZEQKBYPT-UHFFFAOYSA-N
COMPOUNDCLASS: NAOrn
RETENTIONTIME: 
COMMENT: 
Num Peaks: 4
413.337384	1
377.316255	100
115.086589	500
70.065126	999

NAME: FA 18:1;O
PRECURSORMZ: 297.2435
PRECURSORTYPE: [M-H]-
IONMODE: Negative
FORMULA: C18H34O3
SMILES: O=C(O)CCCCCCC(O)C=CCCCCCCCC
INCHIKEY: JEXIZLHRWZNJIX-UHFFFAOYSA-N
COMPOUNDCLASS: OxFA
RETENTIONTIME: 
COMMENT: 
Num Peaks: 1
297.243519	999

NAME: FA 18:1;O2
PRECURSORMZ: 313.2384
PRECURSORTYPE: [M-H]-
IONMODE: Negative
FORMULA: C18H34O4
SMILES: O=C(O)CCCCCC(O)C=CC(O)CCCCCCCC
INCHIKEY: IPRLELFMTNDNMN-UHFFFAOYSA-N
COMPOUNDCLASS: OxFA
RETENTIONTIME: 
COMMENT: 
Num Peaks: 1
313.238433	999

NAME: FA 18:1;O3
PRECURSORMZ: 329.2333
PRECURSORTYPE: [M-H]-
IONMODE: Negative
FORMULA: C18H34O5
SMILES: O=C(O)CCCC(O)CCC(O)C=CCC(O)CCCCCC
INCHIKEY: LGADJSRSYLFTSG-UHFFFAOYSA-N
COMPOUNDCLASS: OxFA
RETENTIONTIME: 
COMMENT: 
Num Peaks: 1
329.233348	999

NAME: FA 18:1;O4
PRECURSORMZ: 345.2283
PRECURSORTYPE: [M-H]-
IONMODE: Negative
FORMULA: C18H34O6
SMILES: O=C(O)CCCC(O)CCC(O)C=CCC(O)CCCCCCO
INCHIKEY: QMAJONTWZZCXBH-UHFFFAOYSA-N
COMPOUNDCLASS: OxFA
RETENTIONTIME: 
COMMENT: 
Num Peaks: 1
345.228262	999

NAME: WE 20:4/16:0
PRECURSORMZ: 546.5245
PRECURSORTYPE: [M+NH4]+
IONMODE: Positive
FORMULA: C36H64O2
SMILES: O=C(OCCCCCCCC=CCC=CCC=CCC=CCC)CCCCCCCCCCCCCCC
INCHIKEY: CLQLUQCAYZNMBE-UHFFFAOYSA-N
COMPOUNDCLASS: WE
RETENTIONTIME: 
COMMENT: 
Num Peaks: 3
546.524457	10
529.497908	10
257.247507	999

