NAME: LPC 18:1
PRECURSORMZ: 566.346342486
PRECURSORTYPE: [M+HCOO]-
IONMODE: Negative
FORMULA: C26H52NO7P
SMILES: O=C(OCC(O)COP(=O)([O-])OCC[N+](C)(C)C)CCCCCCCC=CCCCCCCCC
INCHIKEY: YAMUFBLWGFFICM-UHFFFAOYSA-N
COMPOUNDCLASS: LPC
RETENTIONTIME: 
COMMENT: 
Num Peaks: 4
566.346342	10
506.325213	400
281.248604	999
224.069333	100

NAME: LPC 18:1
PRECURSORMZ: 580.361992551
PRECURSORTYPE: [M+CH3COO]-
IONMODE: Negative
FORMULA: C26H52NO7P
SMILES: O=C(OCC(O)COP(=O)([O-])OCC[N+](C)(C)C)CCCCCCCC=CCCCCCCCC
INCHIKEY: YAMUFBLWGFFICM-UHFFFAOYSA-N
COMPOUNDCLASS: LPC
RETENTIONTIME: 
COMMENT: 
Num Peaks: 4
580.361993	10
506.325213	400
281.248604	999
224.069333	100

NAME: LPC 18:1
PRECURSORMZ: 582.341257105
PRECURSORTYPE: [M+HCO3]-
IONMODE: Negative
FORMULA: C26H52NO7P
SMILES: O=C(OCC(O)COP(=O)([O-])OCC[N+](C)(C)C)CCCCCCCC=CCCCCCCCC
INCHIKEY: YAMUFBLWGFFICM-UHFFFAOYSA-N
COMPOUNDCLASS: LPC
RETENTIONTIME: 
COMMENT: 
Num Peaks: 6
582.341257	200
520.340863	100
461.267364	200
451.246628	300
435.251714	999
281.248604	50

NAME: LPC 18:1
PRECURSORMZ: 522.3554160537
PRECURSORTYPE: [M+H]+
IONMODE: Positive
FORMULA: C26H52NO7P
SMILES: O=C(OCC(O)COP(=O)([O-])OCC[N+](C)(C)C)CCCCCCCC=CCCCCCCCC
INCHIKEY: YAMUFBLWGFFICM-UHFFFAOYSA-N
COMPOUNDCLASS: LPC
RETENTIONTIME: 
COMMENT: 
Num Peaks: 3
522.355416	400
504.344851	150
184.073321	999

NAME: LPC 18:1
PRECURSORMZ: 544.337360334
PRECURSORTYPE: [M+Na]+
IONMODE: Positive
FORMULA: C26H52NO7P
SMILES: O=C(OCC(O)COP(=O)([O-])OCC[N+](C)(C)C)CCCCCCCC=CCCCCCCCC
INCHIKEY: YAMUFBLWGFFICM-UHFFFAOYSA-N
COMPOUNDCLASS: LPC
RETENTIONTIME: 
COMMENT: 
Num Peaks: 5
544.33736	200
485.263861	999
339.289371	100
104.10699	200
86.096426	100

NAME: LPE 18:1
PRECURSORMZ: 478.2939130223
PRECURSORTYPE: [M-H]-
IONMODE: Negative
FORMULA: C23H46NO7P
SMILES: O=C(OCC(O)COP(=O)(O)OCCN)CCCCCCCC=CCCCCCCCC
INCHIKEY: PYVRVRFVLRNJLY-UHFFFAOYSA-N
COMPOUNDCLASS: LPE
RETENTIONTIME: 
COMMENT: 
Num Peaks: 6
478.293913	200
281.248604	999
214.048597	100
196.038033	100
196.038033	100
78.959054	50

NAME: LPE 18:1
PRECURSORMZ: 480.3084658617
PRECURSORTYPE: [M+H]+
IONMODE: Positive
FORMULA: C23H46NO7P
SMILES: O=C(OCC(O)COP(=O)(O)OCCN)CCCCCCCC=CCCCCCCCC
INCHIKEY: PYVRVRFVLRNJLY-UHFFFAOYSA-N
COMPOUNDCLASS: LPE
RETENTIONTIME: 
COMMENT: 
Num Peaks: 2
480.308466	10
339.289371	999

NAME: LPG 18:1
PRECURSORMZ: 509.2884932943
PRECURSORTYPE: [M-H]-
IONMODE: Negative
FORMULA: C24H47O9P
SMILES: O=C(OCC(O)COP(=O)(O)OCC(O)CO)CCCCCCCC=CCCCCCCCC
INCHIKEY: FQQQKGAFQIIGLQ-UHFFFAOYSA-N
COMPOUNDCLASS: LPG
RETENTIONTIME: 
COMMENT: 
Num Peaks: 5
509.288493	300
281.248604	999
245.043178	100
227.032613	100
152.995834	150

NAME: LPG 18:1
PRECURSORMZ: 511.3030461337
PRECURSORTYPE: [M+H]+
IONMODE: Positive
FORMULA: C24H47O9P
SMILES: O=C(OCC(O)COP(=O)(O)OCC(O)CO)CCCCCCCC=CCCCCCCCC
INCHIKEY: FQQQKGAFQIIGLQ-UHFFFAOYSA-N
COMPOUNDCLASS: LPG
RETENTIONTIME: 
COMMENT: 
Num Peaks: 4
511.303046	5
493.292481	5
475.281917	20
339.289371	999

NAME: LPG 18:1
PRECURSORMZ: 528.329595267
PRECURSORTYPE: [M+NH4]+
IONMODE: Positive
FORMULA: C24H47O9P
SMILES: O=C(OCC(O)COP(=O)(O)OCC(O)CO)CCCCCCCC=CCCCCCCCC
INCHIKEY: FQQQKGAFQIIGLQ-UHFFFAOYSA-N
COMPOUNDCLASS: LPG
RETENTIONTIME: 
COMMENT: 
Num Peaks: 5
528.329595	5
511.303046	5
493.292481	5
475.281917	20
339.289371	999

NAME: LPI 18:1
PRECURSORMZ: 597.3045372823
PRECURSORTYPE: [M-H]-
IONMODE: Negative
FORMULA: C27H51O12P
SMILES: O=C(OCC(O)COP(=O)(O)OC1C(O)C(O)C(O)C(O)C1O)CCCCCCCC=CCCCCCCCC
INCHIKEY: UGDOFRYHDCDVHD-UHFFFAOYSA-N
COMPOUNDCLASS: LPI
RETENTIONTIME: 
COMMENT: 
Num Peaks: 6
597.304537	999
315.048657	450
281.248604	999
241.011878	300
152.995834	500
78.959054	50

NAME: LPI 18:1
PRECURSORMZ: 599.3190901217
PRECURSORTYPE: [M+H]+
IONMODE: Positive
FORMULA: C27H51O12P
SMILES: O=C(OCC(O)COP(=O)(O)OC1C(O)C(O)C(O)C(O)C1O)CCCCCCCC=CCCCCCCCC
INCHIKEY: UGDOFRYHDCDVHD-UHFFFAOYSA-N
COMPOUNDCLASS: LPI
RETENTIONTIME: 
COMMENT: 
Num Peaks: 4
599.31909	5
581.308525	5
419.255702	100
339.289371	999

NAME: LPI 18:1
PRECURSORMZ: 616.345639255
PRECURSORTYPE: [M+NH4]+
IONMODE: Positive
FORMULA: C27H51O12P
SMILES: O=C(OCC(O)COP(=O)(O)OC1C(O)C(O)C(O)C(O)C1O)CCCCCCCC=CCCCCCCCC
INCHIKEY: UGDOFRYHDCDVHD-UHFFFAOYSA-N
COMPOUNDCLASS: LPI
RETENTIONTIME: 
COMMENT: 
Num Peaks: 5
616.345639	5
599.31909	5
581.308525	5
419.255702	100
339.289371	999

NAME: LPS 18:1
PRECURSORMZ: 522.2837422623
PRECURSORTYPE: [M-H]-
IONMODE: Negative
FORMULA: C24H46NO9P
SMILES: O=C(OCC(O)COP(=O)(O)OCC(N)C(=O)O)CCCCCCCC=CCCCCCCCC
INCHIKEY: JZWNYZVVZXZRRH-UHFFFAOYSA-N
COMPOUNDCLASS: LPS
RETENTIONTIME: 
COMMENT: 
Num Peaks: 5
522.283742	10
435.251714	500
281.248604	200
152.995834	999
78.959054	500

NAME: LPS 18:1
PRECURSORMZ: 524.2982951017
PRECURSORTYPE: [M+H]+
IONMODE: Positive
FORMULA: C24H46NO9P
SMILES: O=C(OCC(O)COP(=O)(O)OCC(N)C(=O)O)CCCCCCCC=CCCCCCCCC
INCHIKEY: JZWNYZVVZXZRRH-UHFFFAOYSA-N
COMPOUNDCLASS: LPS
RETENTIONTIME: 
COMMENT: 
Num Peaks: 4
524.298295	5
506.28773	10
419.255702	150
339.289371	999

NAME: PC 16:0_18:1
PRECURSORMZ: 804.576008066
PRECURSORTYPE: [M+HCOO]-
IONMODE: Negative
FORMULA: C42H82NO8P
SMILES: O=C(OCC(OC(=O)CCCCCCCC=CCCCCCCCC)COP(=O)([O-])OCC[N+](C)(C)C)CCCCCCCCCCCCCCC
INCHIKEY: WTJKGGKOPKCXLL-UHFFFAOYSA-N
COMPOUNDCLASS: PC
RETENTIONTIME: 
COMMENT: 
Num Peaks: 9
804.576008	200
744.554879	999
506.325213	50
488.314648	50
480.309563	50
462.298998	50
281.248604	600
255.232954	600
224.069333	100

NAME: PC 16:0_18:1
PRECURSORMZ: 818.591658131
PRECURSORTYPE: [M+CH3COO]-
IONMODE: Negative
FORMULA: C42H82NO8P
SMILES: O=C(OCC(OC(=O)CCCCCCCC=CCCCCCCCC)COP(=O)([O-])OCC[N+](C)(C)C)CCCCCCCCCCCCCCC
INCHIKEY: WTJKGGKOPKCXLL-UHFFFAOYSA-N
COMPOUNDCLASS: PC
RETENTIONTIME: 
COMMENT: 
Num Peaks: 9
818.591658	200
744.554879	999
506.325213	50
488.314648	50
480.309563	50
462.298998	50
281.248604	600
255.232954	600
224.069333	100

NAME: PC 16:0_18:1
PRECURSORMZ: 760.5850816337
PRECURSORTYPE: [M+H]+
IONMODE: Positive
FORMULA: C42H82NO8P
SMILES: O=C(OCC(OC(=O)CCCCCCCC=CCCCCCCCC)COP(=O)([O-])OCC[N+](C)(C)C)CCCCCCCCCCCCCCC
INCHIKEY: WTJKGGKOPKCXLL-UHFFFAOYSA-N
COMPOUNDCLASS: PC
RETENTIONTIME: 
COMMENT: 
Num Peaks: 6
760.585082	300
522.355416	50
504.344851	50
496.339766	50
478.329201	50
184.073321	999

NAME: PC 36:2
PRECURSORMZ: 808.582675978
PRECURSORTYPE: [M+Na]+
IONMODE: Positive
FORMULA: C44H84NO8P
SMILES: O=C(OCC(OC(=O)CCCCCCCC=CCCCCCCCC)COP(=O)([O-])OCC[N+](C)(C)C)CCCCCCCC=CCCCCCCCC
INCHIKEY: SNKAWJBJQDLSFF-UHFFFAOYSA-N
COMPOUNDCLASS: PC
RETENTIONTIME: 
COMMENT: 
Num Peaks: 6
808.582676	999
749.509177	500
625.516631	600
603.534687	400
146.981766	400
86.096426	100

NAME: PC 34:1
PRECURSORMZ: 782.567025914
PRECURSORTYPE: [M+Na]+
IONMODE: Positive
FORMULA: C42H82NO8P
SMILES: O=C(OCC(OC(=O)CCCCCCCC=CCCCCCCCC)COP(=O)([O-])OCC[N+](C)(C)C)CCCCCCCCCCCCCCC
INCHIKEY: WTJKGGKOPKCXLL-UHFFFAOYSA-N
COMPOUNDCLASS: PC
RETENTIONTIME: 
COMMENT: 
Num Peaks: 6
782.567026	999
723.493527	500
599.500981	600
577.519037	400
146.981766	400
86.096426	100

NAME: PC 32:0
PRECURSORMZ: 756.55137585
PRECURSORTYPE: [M+Na]+
IONMODE: Positive
FORMULA: C40H80NO8P
SMILES: O=C(OCC(OC(=O)CCCCCCCCCCCCCCC)COP(=O)([O-])OCC[N+](C)(C)C)CCCCCCCCCCCCCCC
INCHIKEY: KILNVBDSWZSGLL-UHFFFAOYSA-N
COMPOUNDCLASS: PC
RETENTIONTIME: 
COMMENT: 
Num Peaks: 6
756.551376	999
697.477877	500
573.485331	600
551.503387	400
146.981766	400
86.096426	100

NAME: PC 18:1/16:0
PRECURSORMZ: 820.5709
PRECURSORTYPE: [M+HCO3]-
IONMODE: Negative
FORMULA: C42H82NO8P
SMILES: O=C(OCC(OC(=O)CCCCCCCCCCCCCCC)COP(=O)([O-])OCC[N+](C)(C)C)CCCCCCCC=CCCCCCCCC
INCHIKEY: RRVPPYNAZJRZFR-UHFFFAOYSA-N
COMPOUNDCLASS: PC
RETENTIONTIME: 
COMMENT: 
Num Peaks: 5
820.570923	200
699.49703	600
445.272449	200
281.248604	100
255.232954	200

NAME: PC 16:0/18:1
PRECURSORMZ: 820.5709
PRECURSORTYPE: [M+HCO3]-
IONMODE: Negative
FORMULA: C42H82NO8P
SMILES: O=C(OCC(OC(=O)CCCCCCCC=CCCCCCCCC)COP(=O)([O-])OCC[N+](C)(C)C)CCCCCCCCCCCCCCC
INCHIKEY: WTJKGGKOPKCXLL-UHFFFAOYSA-N
COMPOUNDCLASS: PC
RETENTIONTIME: 
COMMENT: 
Num Peaks: 5
820.570923	200
699.49703	600
419.256799	200
281.248604	200
255.232954	100

NAME: PE 16:0_18:1
PRECURSORMZ: 716.5235786023
PRECURSORTYPE: [M-H]-
IONMODE: Negative
FORMULA: C39H76NO8P
SMILES: O=C(OCC(OC(=O)CCCCCCCC=CCCCCCCCC)COP(=O)(O)OCCN)CCCCCCCCCCCCCCC
INCHIKEY: FHQVHHIBKUMWTI-UHFFFAOYSA-N
COMPOUNDCLASS: PE
RETENTIONTIME: 
COMMENT: 
Num Peaks: 8
716.523579	700
478.293913	50
460.283348	50
452.278263	50
434.267698	50
281.248604	999
255.232954	999
196.038033	100

NAME: PE 16:0_18:1
PRECURSORMZ: 718.5381314417
PRECURSORTYPE: [M+H]+
IONMODE: Positive
FORMULA: C39H76NO8P
SMILES: O=C(OCC(OC(=O)CCCCCCCC=CCCCCCCCC)COP(=O)(O)OCCN)CCCCCCCCCCCCCCC
INCHIKEY: FHQVHHIBKUMWTI-UHFFFAOYSA-N
COMPOUNDCLASS: PE
RETENTIONTIME: 
COMMENT: 
Num Peaks: 4
718.538131	50
577.519037	999
265.252592	50
239.236942	50

NAME: PE 36:2
PRECURSORMZ: 766.535725786
PRECURSORTYPE: [M+Na]+
IONMODE: Positive
FORMULA: C41H78NO8P
SMILES: O=C(OCC(OC(=O)CCCCCCCC=CCCCCCCCC)COP(=O)(O)OCCN)CCCCCCCC=CCCCCCCCC
INCHIKEY: MWRBNPKJOOWZPW-UHFFFAOYSA-N
COMPOUNDCLASS: PE
RETENTIONTIME: 
COMMENT: 
Num Peaks: 5
766.535726	70
723.493527	400
625.516631	500
603.534687	999
164.008315	300

NAME: PE 34:1
PRECURSORMZ: 740.520075722
PRECURSORTYPE: [M+Na]+
IONMODE: Positive
FORMULA: C39H76NO8P
SMILES: O=C(OCC(OC(=O)CCCCCCCC=CCCCCCCCC)COP(=O)(O)OCCN)CCCCCCCCCCCCCCC
INCHIKEY: FHQVHHIBKUMWTI-UHFFFAOYSA-N
COMPOUNDCLASS: PE
RETENTIONTIME: 
COMMENT: 
Num Peaks: 5
740.520076	70
697.477877	400
599.500981	500
577.519037	999
164.008315	300

NAME: PE 32:0
PRECURSORMZ: 714.504425658
PRECURSORTYPE: [M+Na]+
IONMODE: Positive
FORMULA: C37H74NO8P
SMILES: O=C(OCC(OC(=O)CCCCCCCCCCCCCCC)COP(=O)(O)OCCN)CCCCCCCCCCCCCCC
INCHIKEY: SLKDGVPOSSLUAI-UHFFFAOYSA-N
COMPOUNDCLASS: PE
RETENTIONTIME: 
COMMENT: 
Num Peaks: 5
714.504426	70
671.462226	400
573.485331	500
551.503387	999
164.008315	300

NAME: PG 16:0_18:1
PRECURSORMZ: 747.5181588743
PRECURSORTYPE: [M-H]-
IONMODE: Negative
FORMULA: C40H77O10P
SMILES: O=C(OCC(OC(=O)CCCCCCCC=CCCCCCCCC)COP(=O)(O)OCC(O)CO)CCCCCCCCCCCCCCC
INCHIKEY: PAZGBAOHGQRCBP-UHFFFAOYSA-N
COMPOUNDCLASS: PG
RETENTIONTIME: 
COMMENT: 
Num Peaks: 7
747.518159	500
509.288493	100
491.277929	100
483.272843	100
465.262279	100
281.248604	999
255.232954	999

NAME: PG 16:0_18:1
PRECURSORMZ: 766.559260847
PRECURSORTYPE: [M+NH4]+
IONMODE: Positive
FORMULA: C40H77O10P
SMILES: O=C(OCC(OC(=O)CCCCCCCC=CCCCCCCCC)COP(=O)(O)OCC(O)CO)CCCCCCCCCCCCCCC
INCHIKEY: PAZGBAOHGQRCBP-UHFFFAOYSA-N
COMPOUNDCLASS: PG
RETENTIONTIME: 
COMMENT: 
Num Peaks: 4
766.559261	50
577.519037	999
339.289371	50
313.273721	50

NAME: PI 16:0_18:1
PRECURSORMZ: 835.5342028623
PRECURSORTYPE: [M-H]-
IONMODE: Negative
FORMULA: C43H81O13P
SMILES: O=C(OCC(OC(=O)CCCCCCCC=CCCCCCCCC)COP(=O)(O)OC1C(O)C(O)C(O)C(O)C1O)CCCCCCCCCCCCCCC
INCHIKEY: PDLAMJKMOKWLAJ-UHFFFAOYSA-N
COMPOUNDCLASS: PI
RETENTIONTIME: 
COMMENT: 
Num Peaks: 9
835.534203	999
597.304537	100
579.293973	100
571.288887	100
553.278323	100
297.038092	200
281.248604	200
255.232954	200
241.011878	200

NAME: PI 36:2
PRECURSORMZ: 885.546350046
PRECURSORTYPE: [M+Na]+
IONMODE: Positive
FORMULA: C45H83O13P
SMILES: O=C(OCC(OC(=O)CCCCCCCC=CCCCCCCCC)COP(=O)(O)OC1C(O)C(O)C(O)C(O)C1O)CCCCCCCC=CCCCCCCCC
INCHIKEY: LALGUHSIWLNTNW-UHFFFAOYSA-N
COMPOUNDCLASS: PI
RETENTIONTIME: 
COMMENT: 
Num Peaks: 4
885.54635	800
625.516631	100
603.534687	300
283.018939	999

NAME: PI 34:1
PRECURSORMZ: 859.530699982
PRECURSORTYPE: [M+Na]+
IONMODE: Positive
FORMULA: C43H81O13P
SMILES: O=C(OCC(OC(=O)CCCCCCCC=CCCCCCCCC)COP(=O)(O)OC1C(O)C(O)C(O)C(O)C1O)CCCCCCCCCCCCCCC
INCHIKEY: PDLAMJKMOKWLAJ-UHFFFAOYSA-N
COMPOUNDCLASS: PI
RETENTIONTIME: 
COMMENT: 
Num Peaks: 4
859.5307	800
599.500981	100
577.519037	300
283.018939	999

NAME: PI 32:0
PRECURSORMZ: 833.515049918
PRECURSORTYPE: [M+Na]+
IONMODE: Positive
FORMULA: C41H79O13P
SMILES: O=C(OCC(OC(=O)CCCCCCCCCCCCCCC)COP(=O)(O)OC1C(O)C(O)C(O)C(O)C1O)CCCCCCCCCCCCCCC
INCHIKEY: IBUKXRINTKQBRQ-UHFFFAOYSA-N
COMPOUNDCLASS: PI
RETENTIONTIME: 
COMMENT: 
Num Peaks: 4
833.51505	800
573.485331	100
551.503387	300
283.018939	999

NAME: PI 36:2
PRECURSORMZ: 880.590954899
PRECURSORTYPE: [M+NH4]+
IONMODE: Positive
FORMULA: C45H83O13P
SMILES: O=C(OCC(OC(=O)CCCCCCCC=CCCCCCCCC)COP(=O)(O)OC1C(O)C(O)C(O)C(O)C1O)CCCCCCCC=CCCCCCCCC
INCHIKEY: LALGUHSIWLNTNW-UHFFFAOYSA-N
COMPOUNDCLASS: PI
RETENTIONTIME: 
COMMENT: 
Num Peaks: 2
880.590955	50
603.534687	999

NAME: PI 34:1
PRECURSORMZ: 854.575304835
PRECURSORTYPE: [M+NH4]+
IONMODE: Positive
FORMULA: C43H81O13P
SMILES: O=C(OCC(OC(=O)CCCCCCCC=CCCCCCCCC)COP(=O)(O)OC1C(O)C(O)C(O)C(O)C1O)CCCCCCCCCCCCCCC
INCHIKEY: PDLAMJKMOKWLAJ-UHFFFAOYSA-N
COMPOUNDCLASS: PI
RETENTIONTIME: 
COMMENT: 
Num Peaks: 2
854.575305	50
577.519037	999

NAME: PI 32:0
PRECURSORMZ: 828.559654771
PRECURSORTYPE: [M+NH4]+
IONMODE: Positive
FORMULA: C41H79O13P
SMILES: O=C(OCC(OC(=O)CCCCCCCCCCCCCCC)COP(=O)(O)OC1C(O)C(O)C(O)C(O)C1O)CCCCCCCCCCCCCCC
INCHIKEY: IBUKXRINTKQBRQ-UHFFFAOYSA-N
COMPOUNDCLASS: PI
RETENTIONTIME: 
COMMENT: 
Num Peaks: 2
828.559655	50
551.503387	999

NAME: PS 16:0_18:1
PRECURSORMZ: 760.5134078423
PRECURSORTYPE: [M-H]-
IONMODE: Negative
FORMULA: C40H76NO10P
SMILES: O=C(OCC(OC(=O)CCCCCCCC=CCCCCCCCC)COP(=O)(O)OCC(N)C(=O)O)CCCCCCCCCCCCCCC
INCHIKEY: OIWCYIUQAVBPGV-UHFFFAOYSA-N
COMPOUNDCLASS: PS
RETENTIONTIME: 
COMMENT: 
Num Peaks: 8
760.513408	500
673.481379	600
435.251714	200
417.241149	200
409.236064	200
391.225499	200
281.248604	999
255.232954	999

NAME: PS 16:0_18:1
PRECURSORMZ: 762.5279606817
PRECURSORTYPE: [M+H]+
IONMODE: Positive
FORMULA: C40H76NO10P
SMILES: O=C(OCC(OC(=O)CCCCCCCC=CCCCCCCCC)COP(=O)(O)OCC(N)C(=O)O)CCCCCCCCCCCCCCC
INCHIKEY: OIWCYIUQAVBPGV-UHFFFAOYSA-N
COMPOUNDCLASS: PS
RETENTIONTIME: 
COMMENT: 
Num Peaks: 6
762.527961	200
577.519037	999
524.298295	10
506.28773	10
498.282645	10
480.27208	10

NAME: PS 36:2
PRECURSORMZ: 810.525555026
PRECURSORTYPE: [M+Na]+
IONMODE: Positive
FORMULA: C42H78NO10P
SMILES: O=C(OCC(OC(=O)CCCCCCCC=CCCCCCCCC)COP(=O)(O)OCC(N)C(=O)O)CCCCCCCC=CCCCCCCCC
INCHIKEY: WTBFLCSPLLEDEM-UHFFFAOYSA-N
COMPOUNDCLASS: PS
RETENTIONTIME: 
COMMENT: 
Num Peaks: 5
810.525555	800
723.493527	300
625.516631	700
603.534687	300
207.998144	999

NAME: PS 34:1
PRECURSORMZ: 784.509904962
PRECURSORTYPE: [M+Na]+
IONMODE: Positive
FORMULA: C40H76NO10P
SMILES: O=C(OCC(OC(=O)CCCCCCCC=CCCCCCCCC)COP(=O)(O)OCC(N)C(=O)O)CCCCCCCCCCCCCCC
INCHIKEY: OIWCYIUQAVBPGV-UHFFFAOYSA-N
COMPOUNDCLASS: PS
RETENTIONTIME: 
COMMENT: 
Num Peaks: 5
784.509905	800
697.477877	300
599.500981	700
577.519037	300
207.998144	999

NAME: PS 32:0
PRECURSORMZ: 758.494254898
PRECURSORTYPE: [M+Na]+
IONMODE: Positive
FORMULA: C38H74NO10P
SMILES: O=C(OCC(OC(=O)CCCCCCCCCCCCCCC)COP(=O)(O)OCC(N)C(=O)O)CCCCCCCCCCCCCCC
INCHIKEY: KLFKZIQAIPDJCW-UHFFFAOYSA-N
COMPOUNDCLASS: PS
RETENTIONTIME: 
COMMENT: 
Num Peaks: 5
758.494255	800
671.462226	300
573.485331	700
551.503387	300
207.998144	999

