NAME: Cer 14:0;O3/18:1;2OH,3OH
PRECURSORMZ: 602.4637
PRECURSORTYPE: [M+HCOO]-
IONMODE: Negative
FORMULA: C32H63NO6
SMILES: O=C(NC(CO)C(O)C(O)CCCCCCCCCC)C(O)C(O)CCCCCC=CCCCCCCCC
INCHIKEY: RSGOKNCUKYMECX-UHFFFAOYSA-N
COMPOUNDCLASS: Cer_ABP
RETENTIONTIME: 
COMMENT: 
Num Peaks: 4
602.463742	10
556.458262	999
538.447698	50
318.228597	999

NAME: Cer 14:0;O3/20:4;2OH,3OH
PRECURSORMZ: 624.4481
PRECURSORTYPE: [M+HCOO]-
IONMODE: Negative
FORMULA: C34H61NO6
SMILES: O=C(NC(CO)C(O)C(O)CCCCCCCCCC)C(O)C(O)CCCCC=CCC=CCC=CCC=CCC
INCHIKEY: WPSBQIAVHAWJGP-UHFFFAOYSA-N
COMPOUNDCLASS: Cer_ABP
RETENTIONTIME: 
COMMENT: 
Num Peaks: 4
624.448092	10
578.442612	999
560.432048	50
318.228597	999

NAME: Cer 18:1;O3/14:0;2OH,3OH
PRECURSORMZ: 602.4637
PRECURSORTYPE: [M+HCOO]-
IONMODE: Negative
FORMULA: C32H63NO6
SMILES: O=C(NC(CO)C(O)C(O)CCCC=CCCCCCCCCC)C(O)C(O)CCCCCCCCCCC
INCHIKEY: NGSSLOQBUVKSIA-UHFFFAOYSA-N
COMPOUNDCLASS: Cer_ABP
RETENTIONTIME: 
COMMENT: 
Num Peaks: 4
602.463742	10
556.458262	999
538.447698	50
372.275547	999

NAME: Cer 18:1;O3/20:4;2OH,3OH
PRECURSORMZ: 678.495
PRECURSORTYPE: [M+HCOO]-
IONMODE: Negative
FORMULA: C38H67NO6
SMILES: O=C(NC(CO)C(O)C(O)CCCC=CCCCCCCCCC)C(O)C(O)CCCCC=CCC=CCC=CCC=CCC
INCHIKEY: RCRZNNBNMHGTME-UHFFFAOYSA-N
COMPOUNDCLASS: Cer_ABP
RETENTIONTIME: 
COMMENT: 
Num Peaks: 4
678.495042	10
632.489562	999
614.478998	50
372.275547	999

NAME: Cer 14:0;O3/18:1;2OH,3OH
PRECURSORMZ: 616.4794
PRECURSORTYPE: [M+CH3COO]-
IONMODE: Negative
FORMULA: C32H63NO6
SMILES: O=C(NC(CO)C(O)C(O)CCCCCCCCCC)C(O)C(O)CCCCCC=CCCCCCCCC
INCHIKEY: RSGOKNCUKYMECX-UHFFFAOYSA-N
COMPOUNDCLASS: Cer_ABP
RETENTIONTIME: 
COMMENT: 
Num Peaks: 4
616.479392	10
556.458262	999
538.447698	50
318.228597	999

NAME: Cer 14:0;O3/20:4;2OH,3OH
PRECURSORMZ: 638.4637
PRECURSORTYPE: [M+CH3COO]-
IONMODE: Negative
FORMULA: C34H61NO6
SMILES: O=C(NC(CO)C(O)C(O)CCCCCCCCCC)C(O)C(O)CCCCC=CCC=CCC=CCC=CCC
INCHIKEY: WPSBQIAVHAWJGP-UHFFFAOYSA-N
COMPOUNDCLASS: Cer_ABP
RETENTIONTIME: 
COMMENT: 
Num Peaks: 4
638.463742	10
578.442612	999
560.432048	50
318.228597	999

NAME: Cer 18:1;O3/14:0;2OH,3OH
PRECURSORMZ: 616.4794
PRECURSORTYPE: [M+CH3COO]-
IONMODE: Negative
FORMULA: C32H63NO6
SMILES: O=C(NC(CO)C(O)C(O)CCCC=CCCCCCCCCC)C(O)C(O)CCCCCCCCCCC
INCHIKEY: NGSSLOQBUVKSIA-UHFFFAOYSA-N
COMPOUNDCLASS: Cer_ABP
RETENTIONTIME: 
COMMENT: 
Num Peaks: 4
616.479392	10
556.458262	999
538.447698	50
372.275547	999

NAME: Cer 18:1;O3/20:4;2OH,3OH
PRECURSORMZ: 692.5107
PRECURSORTYPE: [M+CH3COO]-
IONMODE: Negative
FORMULA: C38H67NO6
SMILES: O=C(NC(CO)C(O)C(O)CCCC=CCCCCCCCCC)C(O)C(O)CCCCC=CCC=CCC=CCC=CCC
INCHIKEY: RCRZNNBNMHGTME-UHFFFAOYSA-N
COMPOUNDCLASS: Cer_ABP
RETENTIONTIME: 
COMMENT: 
Num Peaks: 4
692.510692	10
632.489562	999
614.478998	50
372.275547	999

NAME: Cer 14:0;O3/18:1;2OH,3OH
PRECURSORMZ: 556.4583
PRECURSORTYPE: [M-H]-
IONMODE: Negative
FORMULA: C32H63NO6
SMILES: O=C(NC(CO)C(O)C(O)CCCCCCCCCC)C(O)C(O)CCCCCC=CCCCCCCCC
INCHIKEY: RSGOKNCUKYMECX-UHFFFAOYSA-N
COMPOUNDCLASS: Cer_ABP
RETENTIONTIME: 
COMMENT: 
Num Peaks: 3
556.458262	999
538.447698	50
318.228597	999

NAME: Cer 14:0;O3/20:4;2OH,3OH
PRECURSORMZ: 578.4426
PRECURSORTYPE: [M-H]-
IONMODE: Negative
FORMULA: C34H61NO6
SMILES: O=C(NC(CO)C(O)C(O)CCCCCCCCCC)C(O)C(O)CCCCC=CCC=CCC=CCC=CCC
INCHIKEY: WPSBQIAVHAWJGP-UHFFFAOYSA-N
COMPOUNDCLASS: Cer_ABP
RETENTIONTIME: 
COMMENT: 
Num Peaks: 3
578.442612	999
560.432048	50
318.228597	999

NAME: Cer 18:1;O3/14:0;2OH,3OH
PRECURSORMZ: 556.4583
PRECURSORTYPE: [M-H]-
IONMODE: Negative
FORMULA: C32H63NO6
SMILES: O=C(NC(CO)C(O)C(O)CCCC=CCCCCCCCCC)C(O)C(O)CCCCCCCCCCC
INCHIKEY: NGSSLOQBUVKSIA-UHFFFAOYSA-N
COMPOUNDCLASS: Cer_ABP
RETENTIONTIME: 
COMMENT: 
Num Peaks: 3
556.458262	999
538.447698	50
372.275547	999

NAME: Cer 18:1;O3/20:4;2OH,3OH
PRECURSORMZ: 632.4896
PRECURSORTYPE: [M-H]-
IONMODE: Negative
FORMULA: C38H67NO6
SMILES: O=C(NC(CO)C(O)C(O)CCCC=CCCCCCCCCC)C(O)C(O)CCCCC=CCC=CCC=CCC=CCC
INCHIKEY: RCRZNNBNMHGTME-UHFFFAOYSA-N
COMPOUNDCLASS: Cer_ABP
RETENTIONTIME: 
COMMENT: 
Num Peaks: 3
632.489562	999
614.478998	50
372.275547	999

NAME: Cer 14:0;O3/18:1;2OH,3OH
PRECURSORMZ: 558.4728
PRECURSORTYPE: [M+H]+
IONMODE: Positive
FORMULA: C32H63NO6
SMILES: O=C(NC(CO)C(O)C(O)CCCCCCCCCC)C(O)C(O)CCCCCC=CCCCCCCCC
INCHIKEY: RSGOKNCUKYMECX-UHFFFAOYSA-N
COMPOUNDCLASS: Cer_ABP
RETENTIONTIME: 
COMMENT: 
Num Peaks: 10
558.472815	300
540.46225	999
522.451686	400
504.441121	100
356.279535	100
314.26897	100
262.23767	100
244.227106	600
226.216541	400
208.205976	400

NAME: Cer 14:0;O3/20:4;2OH,3OH
PRECURSORMZ: 580.4572
PRECURSORTYPE: [M+H]+
IONMODE: Positive
FORMULA: C34H61NO6
SMILES: O=C(NC(CO)C(O)C(O)CCCCCCCCCC)C(O)C(O)CCCCC=CCC=CCC=CCC=CCC
INCHIKEY: WPSBQIAVHAWJGP-UHFFFAOYSA-N
COMPOUNDCLASS: Cer_ABP
RETENTIONTIME: 
COMMENT: 
Num Peaks: 10
580.457165	300
562.4466	999
544.436036	400
526.425471	100
378.263885	100
336.25332	100
262.23767	100
244.227106	600
226.216541	400
208.205976	400

NAME: Cer 18:1;O3/14:0;2OH,3OH
PRECURSORMZ: 558.4728
PRECURSORTYPE: [M+H]+
IONMODE: Positive
FORMULA: C32H63NO6
SMILES: O=C(NC(CO)C(O)C(O)CCCC=CCCCCCCCCC)C(O)C(O)CCCCCCCCCCC
INCHIKEY: NGSSLOQBUVKSIA-UHFFFAOYSA-N
COMPOUNDCLASS: Cer_ABP
RETENTIONTIME: 
COMMENT: 
Num Peaks: 10
558.472815	300
540.46225	999
522.451686	400
504.441121	100
316.28462	100
302.232585	100
298.274056	600
280.263491	400
262.252926	400
260.22202	100

NAME: Cer 18:1;O3/20:4;2OH,3OH
PRECURSORMZ: 634.5041
PRECURSORTYPE: [M+H]+
IONMODE: Positive
FORMULA: C38H67NO6
SMILES: O=C(NC(CO)C(O)C(O)CCCC=CCCCCCCCCC)C(O)C(O)CCCCC=CCC=CCC=CCC=CCC
INCHIKEY: RCRZNNBNMHGTME-UHFFFAOYSA-N
COMPOUNDCLASS: Cer_ABP
RETENTIONTIME: 
COMMENT: 
Num Peaks: 10
634.504115	300
616.493551	999
598.482986	400
580.472421	100
378.263885	100
336.25332	100
316.28462	100
298.274056	600
280.263491	400
262.252926	400

NAME: Cer 14:0;O2/18:1;2OH
PRECURSORMZ: 570.4739
PRECURSORTYPE: [M+HCOO]-
IONMODE: Negative
FORMULA: C32H63NO4
SMILES: O=C(NC(CO)C(O)CCCCCCCCCCC)C(O)CCCCCCC=CCCCCCCCC
INCHIKEY: BPBHMMGJTZLKOX-UHFFFAOYSA-N
COMPOUNDCLASS: Cer_ADS
RETENTIONTIME: 
COMMENT: 
Num Peaks: 13
570.473912	10
524.468433	999
506.457868	50
492.442218	50
476.447304	50
279.232954	50
251.238039	200
244.228203	100
240.196903	100
226.217638	50
222.186338	50
212.201988	100
183.175439	100

NAME: Cer 14:0;O2/20:4;2OH
PRECURSORMZ: 592.4583
PRECURSORTYPE: [M+HCOO]-
IONMODE: Negative
FORMULA: C34H61NO4
SMILES: O=C(NC(CO)C(O)CCCCCCCCCCC)C(O)CCCCCC=CCC=CCC=CCC=CCC
INCHIKEY: FJVQDCGDDQBLPJ-UHFFFAOYSA-N
COMPOUNDCLASS: Cer_ADS
RETENTIONTIME: 
COMMENT: 
Num Peaks: 13
592.458262	10
546.452783	999
528.442218	50
514.426568	50
498.431654	50
301.217304	50
273.222389	200
244.228203	100
240.196903	100
226.217638	50
222.186338	50
212.201988	100
183.175439	100

NAME: Cer 14:0;O2/18:1;2OH
PRECURSORMZ: 584.4896
PRECURSORTYPE: [M+CH3COO]-
IONMODE: Negative
FORMULA: C32H63NO4
SMILES: O=C(NC(CO)C(O)CCCCCCCCCCC)C(O)CCCCCCC=CCCCCCCCC
INCHIKEY: BPBHMMGJTZLKOX-UHFFFAOYSA-N
COMPOUNDCLASS: Cer_ADS
RETENTIONTIME: 
COMMENT: 
Num Peaks: 13
584.489562	10
524.468433	999
506.457868	50
492.442218	50
476.447304	50
279.232954	50
251.238039	200
244.228203	100
240.196903	100
226.217638	50
222.186338	50
212.201988	100
183.175439	100

NAME: Cer 14:0;O2/20:4;2OH
PRECURSORMZ: 606.4739
PRECURSORTYPE: [M+CH3COO]-
IONMODE: Negative
FORMULA: C34H61NO4
SMILES: O=C(NC(CO)C(O)CCCCCCCCCCC)C(O)CCCCCC=CCC=CCC=CCC=CCC
INCHIKEY: FJVQDCGDDQBLPJ-UHFFFAOYSA-N
COMPOUNDCLASS: Cer_ADS
RETENTIONTIME: 
COMMENT: 
Num Peaks: 13
606.473912	10
546.452783	999
528.442218	50
514.426568	50
498.431654	50
301.217304	50
273.222389	200
244.228203	100
240.196903	100
226.217638	50
222.186338	50
212.201988	100
183.175439	100

NAME: Cer 14:0;O2/18:1;2OH
PRECURSORMZ: 524.4684
PRECURSORTYPE: [M-H]-
IONMODE: Negative
FORMULA: C32H63NO4
SMILES: O=C(NC(CO)C(O)CCCCCCCCCCC)C(O)CCCCCCC=CCCCCCCCC
INCHIKEY: BPBHMMGJTZLKOX-UHFFFAOYSA-N
COMPOUNDCLASS: Cer_ADS
RETENTIONTIME: 
COMMENT: 
Num Peaks: 12
524.468433	999
506.457868	50
492.442218	50
476.447304	50
279.232954	50
251.238039	200
244.228203	100
240.196903	100
226.217638	50
222.186338	50
212.201988	100
183.175439	100

NAME: Cer 14:0;O2/20:4;2OH
PRECURSORMZ: 546.4528
PRECURSORTYPE: [M-H]-
IONMODE: Negative
FORMULA: C34H61NO4
SMILES: O=C(NC(CO)C(O)CCCCCCCCCCC)C(O)CCCCCC=CCC=CCC=CCC=CCC
INCHIKEY: FJVQDCGDDQBLPJ-UHFFFAOYSA-N
COMPOUNDCLASS: Cer_ADS
RETENTIONTIME: 
COMMENT: 
Num Peaks: 12
546.452783	999
528.442218	50
514.426568	50
498.431654	50
301.217304	50
273.222389	200
244.228203	100
240.196903	100
226.217638	50
222.186338	50
212.201988	100
183.175439	100

NAME: Cer 14:0;O3/18:1;2OH
PRECURSORMZ: 586.4688
PRECURSORTYPE: [M+HCOO]-
IONMODE: Negative
FORMULA: C32H63NO5
SMILES: O=C(NC(CO)C(O)C(O)CCCCCCCCCC)C(O)CCCCCCC=CCCCCCCCC
INCHIKEY: WGSZJZJUZPMUCN-UHFFFAOYSA-N
COMPOUNDCLASS: Cer_AP
RETENTIONTIME: 
COMMENT: 
Num Peaks: 6
586.468827	10
540.463348	999
352.285718	100
297.243519	400
251.238039	200
169.159789	200

NAME: Cer 14:0;O3/20:4;2OH
PRECURSORMZ: 608.4532
PRECURSORTYPE: [M+HCOO]-
IONMODE: Negative
FORMULA: C34H61NO5
SMILES: O=C(NC(CO)C(O)C(O)CCCCCCCCCC)C(O)CCCCCC=CCC=CCC=CCC=CCC
INCHIKEY: ZPYYAEKKYXHEBP-UHFFFAOYSA-N
COMPOUNDCLASS: Cer_AP
RETENTIONTIME: 
COMMENT: 
Num Peaks: 6
608.453177	10
562.447698	999
374.270068	100
319.227868	400
273.222389	200
169.159789	200

NAME: Cer 18:1;O3/14:0;2OH
PRECURSORMZ: 586.4688
PRECURSORTYPE: [M+HCOO]-
IONMODE: Negative
FORMULA: C32H63NO5
SMILES: O=C(NC(CO)C(O)C(O)CCCC=CCCCCCCCCC)C(O)CCCCCCCCCCCC
INCHIKEY: BKGJVSXOCBWGNL-UHFFFAOYSA-N
COMPOUNDCLASS: Cer_AP
RETENTIONTIME: 
COMMENT: 
Num Peaks: 6
586.468827	10
540.463348	999
298.238768	100
243.196568	400
223.206739	200
197.191089	200

NAME: Cer 18:1;O3/20:4;2OH
PRECURSORMZ: 662.5001
PRECURSORTYPE: [M+HCOO]-
IONMODE: Negative
FORMULA: C38H67NO5
SMILES: O=C(NC(CO)C(O)C(O)CCCC=CCCCCCCCCC)C(O)CCCCCC=CCC=CCC=CCC=CCC
INCHIKEY: HUDQBQIHJNBFRW-UHFFFAOYSA-N
COMPOUNDCLASS: Cer_AP
RETENTIONTIME: 
COMMENT: 
Num Peaks: 6
662.500127	10
616.494648	999
374.270068	100
319.227868	400
273.222389	200
223.206739	200

NAME: Cer 14:0;O3/18:1;2OH
PRECURSORMZ: 524.4673
PRECURSORTYPE: [M+H-H2O]+
IONMODE: Positive
FORMULA: C32H63NO5
SMILES: O=C(NC(CO)C(O)C(O)CCCCCCCCCC)C(O)CCCCCCC=CCCCCCCCC
INCHIKEY: WGSZJZJUZPMUCN-UHFFFAOYSA-N
COMPOUNDCLASS: Cer_AP
RETENTIONTIME: 
COMMENT: 
Num Peaks: 7
524.467336	999
506.456771	400
488.446206	50
262.23767	200
244.227106	400
226.216541	600
208.205976	800

NAME: Cer 14:0;O3/20:4;2OH
PRECURSORMZ: 546.4517
PRECURSORTYPE: [M+H-H2O]+
IONMODE: Positive
FORMULA: C34H61NO5
SMILES: O=C(NC(CO)C(O)C(O)CCCCCCCCCC)C(O)CCCCCC=CCC=CCC=CCC=CCC
INCHIKEY: ZPYYAEKKYXHEBP-UHFFFAOYSA-N
COMPOUNDCLASS: Cer_AP
RETENTIONTIME: 
COMMENT: 
Num Peaks: 7
546.451686	999
528.441121	400
510.430556	50
262.23767	200
244.227106	400
226.216541	600
208.205976	800

NAME: Cer 18:1;O3/14:0;2OH
PRECURSORMZ: 524.4673
PRECURSORTYPE: [M+H-H2O]+
IONMODE: Positive
FORMULA: C32H63NO5
SMILES: O=C(NC(CO)C(O)C(O)CCCC=CCCCCCCCCC)C(O)CCCCCCCCCCCC
INCHIKEY: BKGJVSXOCBWGNL-UHFFFAOYSA-N
COMPOUNDCLASS: Cer_AP
RETENTIONTIME: 
COMMENT: 
Num Peaks: 7
524.467336	999
506.456771	400
488.446206	50
316.28462	200
298.274056	400
280.263491	600
262.252926	800

NAME: Cer 18:1;O3/20:4;2OH
PRECURSORMZ: 600.4986
PRECURSORTYPE: [M+H-H2O]+
IONMODE: Positive
FORMULA: C38H67NO5
SMILES: O=C(NC(CO)C(O)C(O)CCCC=CCCCCCCCCC)C(O)CCCCCC=CCC=CCC=CCC=CCC
INCHIKEY: HUDQBQIHJNBFRW-UHFFFAOYSA-N
COMPOUNDCLASS: Cer_AP
RETENTIONTIME: 
COMMENT: 
Num Peaks: 7
600.498636	999
582.488071	400
564.477507	50
316.28462	200
298.274056	400
280.263491	600
262.252926	800

NAME: Cer 14:0;O3/18:1;2OH
PRECURSORMZ: 600.4845
PRECURSORTYPE: [M+CH3COO]-
IONMODE: Negative
FORMULA: C32H63NO5
SMILES: O=C(NC(CO)C(O)C(O)CCCCCCCCCC)C(O)CCCCCCC=CCCCCCCCC
INCHIKEY: WGSZJZJUZPMUCN-UHFFFAOYSA-N
COMPOUNDCLASS: Cer_AP
RETENTIONTIME: 
COMMENT: 
Num Peaks: 6
600.484477	10
540.463348	999
352.285718	100
297.243519	400
251.238039	200
169.159789	200

NAME: Cer 14:0;O3/20:4;2OH
PRECURSORMZ: 622.4688
PRECURSORTYPE: [M+CH3COO]-
IONMODE: Negative
FORMULA: C34H61NO5
SMILES: O=C(NC(CO)C(O)C(O)CCCCCCCCCC)C(O)CCCCCC=CCC=CCC=CCC=CCC
INCHIKEY: ZPYYAEKKYXHEBP-UHFFFAOYSA-N
COMPOUNDCLASS: Cer_AP
RETENTIONTIME: 
COMMENT: 
Num Peaks: 6
622.468827	10
562.447698	999
374.270068	100
319.227868	400
273.222389	200
169.159789	200

NAME: Cer 18:1;O3/14:0;2OH
PRECURSORMZ: 600.4845
PRECURSORTYPE: [M+CH3COO]-
IONMODE: Negative
FORMULA: C32H63NO5
SMILES: O=C(NC(CO)C(O)C(O)CCCC=CCCCCCCCCC)C(O)CCCCCCCCCCCC
INCHIKEY: BKGJVSXOCBWGNL-UHFFFAOYSA-N
COMPOUNDCLASS: Cer_AP
RETENTIONTIME: 
COMMENT: 
Num Peaks: 6
600.484477	10
540.463348	999
298.238768	100
243.196568	400
223.206739	200
197.191089	200

NAME: Cer 18:1;O3/20:4;2OH
PRECURSORMZ: 676.5158
PRECURSORTYPE: [M+CH3COO]-
IONMODE: Negative
FORMULA: C38H67NO5
SMILES: O=C(NC(CO)C(O)C(O)CCCC=CCCCCCCCCC)C(O)CCCCCC=CCC=CCC=CCC=CCC
INCHIKEY: HUDQBQIHJNBFRW-UHFFFAOYSA-N
COMPOUNDCLASS: Cer_AP
RETENTIONTIME: 
COMMENT: 
Num Peaks: 6
676.515777	10
616.494648	999
374.270068	100
319.227868	400
273.222389	200
223.206739	200

NAME: Cer 14:0;O3/18:1;2OH
PRECURSORMZ: 540.4633
PRECURSORTYPE: [M-H]-
IONMODE: Negative
FORMULA: C32H63NO5
SMILES: O=C(NC(CO)C(O)C(O)CCCCCCCCCC)C(O)CCCCCCC=CCCCCCCCC
INCHIKEY: WGSZJZJUZPMUCN-UHFFFAOYSA-N
COMPOUNDCLASS: Cer_AP
RETENTIONTIME: 
COMMENT: 
Num Peaks: 5
540.463348	999
352.285718	100
297.243519	400
251.238039	200
169.159789	200

NAME: Cer 14:0;O3/20:4;2OH
PRECURSORMZ: 562.4477
PRECURSORTYPE: [M-H]-
IONMODE: Negative
FORMULA: C34H61NO5
SMILES: O=C(NC(CO)C(O)C(O)CCCCCCCCCC)C(O)CCCCCC=CCC=CCC=CCC=CCC
INCHIKEY: ZPYYAEKKYXHEBP-UHFFFAOYSA-N
COMPOUNDCLASS: Cer_AP
RETENTIONTIME: 
COMMENT: 
Num Peaks: 5
562.447698	999
374.270068	100
319.227868	400
273.222389	200
169.159789	200

NAME: Cer 18:1;O3/14:0;2OH
PRECURSORMZ: 540.4633
PRECURSORTYPE: [M-H]-
IONMODE: Negative
FORMULA: C32H63NO5
SMILES: O=C(NC(CO)C(O)C(O)CCCC=CCCCCCCCCC)C(O)CCCCCCCCCCCC
INCHIKEY: BKGJVSXOCBWGNL-UHFFFAOYSA-N
COMPOUNDCLASS: Cer_AP
RETENTIONTIME: 
COMMENT: 
Num Peaks: 5
540.463348	999
298.238768	100
243.196568	400
223.206739	200
197.191089	200

NAME: Cer 18:1;O3/20:4;2OH
PRECURSORMZ: 616.4946
PRECURSORTYPE: [M-H]-
IONMODE: Negative
FORMULA: C38H67NO5
SMILES: O=C(NC(CO)C(O)C(O)CCCC=CCCCCCCCCC)C(O)CCCCCC=CCC=CCC=CCC=CCC
INCHIKEY: HUDQBQIHJNBFRW-UHFFFAOYSA-N
COMPOUNDCLASS: Cer_AP
RETENTIONTIME: 
COMMENT: 
Num Peaks: 5
616.494648	999
374.270068	100
319.227868	400
273.222389	200
223.206739	200

NAME: Cer 14:0;O3/18:1;2OH
PRECURSORMZ: 542.4779
PRECURSORTYPE: [M+H]+
IONMODE: Positive
FORMULA: C32H63NO5
SMILES: O=C(NC(CO)C(O)C(O)CCCCCCCCCC)C(O)CCCCCCC=CCCCCCCCC
INCHIKEY: WGSZJZJUZPMUCN-UHFFFAOYSA-N
COMPOUNDCLASS: Cer_AP
RETENTIONTIME: 
COMMENT: 
Num Peaks: 8
542.477901	300
524.467336	999
506.456771	400
488.446206	50
262.23767	200
244.227106	400
226.216541	600
208.205976	800

NAME: Cer 14:0;O3/20:4;2OH
PRECURSORMZ: 564.4623
PRECURSORTYPE: [M+H]+
IONMODE: Positive
FORMULA: C34H61NO5
SMILES: O=C(NC(CO)C(O)C(O)CCCCCCCCCC)C(O)CCCCCC=CCC=CCC=CCC=CCC
INCHIKEY: ZPYYAEKKYXHEBP-UHFFFAOYSA-N
COMPOUNDCLASS: Cer_AP
RETENTIONTIME: 
COMMENT: 
Num Peaks: 8
564.46225	300
546.451686	999
528.441121	400
510.430556	50
262.23767	200
244.227106	400
226.216541	600
208.205976	800

NAME: Cer 18:1;O3/14:0;2OH
PRECURSORMZ: 542.4779
PRECURSORTYPE: [M+H]+
IONMODE: Positive
FORMULA: C32H63NO5
SMILES: O=C(NC(CO)C(O)C(O)CCCC=CCCCCCCCCC)C(O)CCCCCCCCCCCC
INCHIKEY: BKGJVSXOCBWGNL-UHFFFAOYSA-N
COMPOUNDCLASS: Cer_AP
RETENTIONTIME: 
COMMENT: 
Num Peaks: 8
542.477901	300
524.467336	999
506.456771	400
488.446206	50
316.28462	200
298.274056	400
280.263491	600
262.252926	800

NAME: Cer 18:1;O3/20:4;2OH
PRECURSORMZ: 618.5092
PRECURSORTYPE: [M+H]+
IONMODE: Positive
FORMULA: C38H67NO5
SMILES: O=C(NC(CO)C(O)C(O)CCCC=CCCCCCCCCC)C(O)CCCCCC=CCC=CCC=CCC=CCC
INCHIKEY: HUDQBQIHJNBFRW-UHFFFAOYSA-N
COMPOUNDCLASS: Cer_AP
RETENTIONTIME: 
COMMENT: 
Num Peaks: 8
618.509201	300
600.498636	999
582.488071	400
564.477507	50
316.28462	200
298.274056	400
280.263491	600
262.252926	800

NAME: Cer 14:0;O3/18:1;2OH
PRECURSORMZ: 564.4598
PRECURSORTYPE: [M+Na]+
IONMODE: Positive
FORMULA: C32H63NO5
SMILES: O=C(NC(CO)C(O)C(O)CCCCCCCCCC)C(O)CCCCCCC=CCCCCCCCC
INCHIKEY: WGSZJZJUZPMUCN-UHFFFAOYSA-N
COMPOUNDCLASS: Cer_AP
RETENTIONTIME: 
COMMENT: 
Num Peaks: 2
564.459845	999
226.216541	50

NAME: Cer 14:0;O3/20:4;2OH
PRECURSORMZ: 586.4442
PRECURSORTYPE: [M+Na]+
IONMODE: Positive
FORMULA: C34H61NO5
SMILES: O=C(NC(CO)C(O)C(O)CCCCCCCCCC)C(O)CCCCCC=CCC=CCC=CCC=CCC
INCHIKEY: ZPYYAEKKYXHEBP-UHFFFAOYSA-N
COMPOUNDCLASS: Cer_AP
RETENTIONTIME: 
COMMENT: 
Num Peaks: 2
586.444195	999
226.216541	50

NAME: Cer 18:1;O3/14:0;2OH
PRECURSORMZ: 564.4598
PRECURSORTYPE: [M+Na]+
IONMODE: Positive
FORMULA: C32H63NO5
SMILES: O=C(NC(CO)C(O)C(O)CCCC=CCCCCCCCCC)C(O)CCCCCCCCCCCC
INCHIKEY: BKGJVSXOCBWGNL-UHFFFAOYSA-N
COMPOUNDCLASS: Cer_AP
RETENTIONTIME: 
COMMENT: 
Num Peaks: 2
564.459845	999
280.263491	50

NAME: Cer 18:1;O3/20:4;2OH
PRECURSORMZ: 640.4911
PRECURSORTYPE: [M+Na]+
IONMODE: Positive
FORMULA: C38H67NO5
SMILES: O=C(NC(CO)C(O)C(O)CCCC=CCCCCCCCCC)C(O)CCCCCC=CCC=CCC=CCC=CCC
INCHIKEY: HUDQBQIHJNBFRW-UHFFFAOYSA-N
COMPOUNDCLASS: Cer_AP
RETENTIONTIME: 
COMMENT: 
Num Peaks: 2
640.491145	999
280.263491	50

NAME: Cer 18:1;O2/14:0;2OH
PRECURSORMZ: 570.4739
PRECURSORTYPE: [M+HCOO]-
IONMODE: Negative
FORMULA: C32H63NO4
SMILES: O=C(NC(CO)C(O)C=CCCCCCCCCCCCCC)C(O)CCCCCCCCCCCC
INCHIKEY: QTRHWTPSLZLMAL-UHFFFAOYSA-N
COMPOUNDCLASS: Cer_AS
RETENTIONTIME: 
COMMENT: 
Num Peaks: 13
570.473912	10
524.468433	999
506.457868	50
492.442218	50
476.447304	100
280.264588	50
268.264588	100
243.196568	100
242.212553	80
239.238039	100
237.222389	100
225.186004	100
197.191089	150

NAME: Cer 18:1;O2/20:4;2OH
PRECURSORMZ: 646.5052
PRECURSORTYPE: [M+HCOO]-
IONMODE: Negative
FORMULA: C38H67NO4
SMILES: O=C(NC(CO)C(O)C=CCCCCCCCCCCCCC)C(O)CCCCCC=CCC=CCC=CCC=CCC
INCHIKEY: ASZNJWAOWWLNNE-UHFFFAOYSA-N
COMPOUNDCLASS: Cer_AS
RETENTIONTIME: 
COMMENT: 
Num Peaks: 13
646.505212	10
600.499733	999
582.489169	50
568.473518	50
552.478604	100
319.227868	100
318.243853	80
301.217304	100
280.264588	50
273.222389	150
268.264588	100
239.238039	100
237.222389	100

NAME: Cer 18:1;O2/14:0;2OH
PRECURSORMZ: 584.4896
PRECURSORTYPE: [M+CH3COO]-
IONMODE: Negative
FORMULA: C32H63NO4
SMILES: O=C(NC(CO)C(O)C=CCCCCCCCCCCCCC)C(O)CCCCCCCCCCCC
INCHIKEY: QTRHWTPSLZLMAL-UHFFFAOYSA-N
COMPOUNDCLASS: Cer_AS
RETENTIONTIME: 
COMMENT: 
Num Peaks: 13
584.489562	10
524.468433	999
506.457868	50
492.442218	50
476.447304	100
280.264588	50
268.264588	100
243.196568	100
242.212553	80
239.238039	100
237.222389	100
225.186004	100
197.191089	150

NAME: Cer 18:1;O2/20:4;2OH
PRECURSORMZ: 660.5209
PRECURSORTYPE: [M+CH3COO]-
IONMODE: Negative
FORMULA: C38H67NO4
SMILES: O=C(NC(CO)C(O)C=CCCCCCCCCCCCCC)C(O)CCCCCC=CCC=CCC=CCC=CCC
INCHIKEY: ASZNJWAOWWLNNE-UHFFFAOYSA-N
COMPOUNDCLASS: Cer_AS
RETENTIONTIME: 
COMMENT: 
Num Peaks: 13
660.520863	10
600.499733	999
582.489169	50
568.473518	50
552.478604	100
319.227868	100
318.243853	80
301.217304	100
280.264588	50
273.222389	150
268.264588	100
239.238039	100
237.222389	100

NAME: Cer 18:1;O2/14:0;2OH
PRECURSORMZ: 524.4684
PRECURSORTYPE: [M-H]-
IONMODE: Negative
FORMULA: C32H63NO4
SMILES: O=C(NC(CO)C(O)C=CCCCCCCCCCCCCC)C(O)CCCCCCCCCCCC
INCHIKEY: QTRHWTPSLZLMAL-UHFFFAOYSA-N
COMPOUNDCLASS: Cer_AS
RETENTIONTIME: 
COMMENT: 
Num Peaks: 12
524.468433	999
506.457868	50
492.442218	50
476.447304	100
280.264588	50
268.264588	100
243.196568	100
242.212553	80
239.238039	100
237.222389	100
225.186004	100
197.191089	150

NAME: Cer 18:1;O2/20:4;2OH
PRECURSORMZ: 600.4997
PRECURSORTYPE: [M-H]-
IONMODE: Negative
FORMULA: C38H67NO4
SMILES: O=C(NC(CO)C(O)C=CCCCCCCCCCCCCC)C(O)CCCCCC=CCC=CCC=CCC=CCC
INCHIKEY: ASZNJWAOWWLNNE-UHFFFAOYSA-N
COMPOUNDCLASS: Cer_AS
RETENTIONTIME: 
COMMENT: 
Num Peaks: 12
600.499733	999
582.489169	50
568.473518	50
552.478604	100
319.227868	100
318.243853	80
301.217304	100
280.264588	50
273.222389	150
268.264588	100
239.238039	100
237.222389	100

NAME: Cer 14:0;O2/18:1;3OH
PRECURSORMZ: 570.4739
PRECURSORTYPE: [M+HCOO]-
IONMODE: Negative
FORMULA: C32H63NO4
SMILES: O=C(NC(CO)C(O)CCCCCCCCCCC)CC(O)CCCCCC=CCCCCCCCC
INCHIKEY: WBUMMBAYPBXBNM-UHFFFAOYSA-N
COMPOUNDCLASS: Cer_BDS
RETENTIONTIME: 
COMMENT: 
Num Peaks: 6
570.473912	10
524.468433	999
286.238768	999
254.212553	200
244.228203	200
183.175439	100

NAME: Cer 14:0;O2/20:4;3OH
PRECURSORMZ: 592.4583
PRECURSORTYPE: [M+HCOO]-
IONMODE: Negative
FORMULA: C34H61NO4
SMILES: O=C(NC(CO)C(O)CCCCCCCCCCC)CC(O)CCCCC=CCC=CCC=CCC=CCC
INCHIKEY: ZSLLCIDJRWELHX-UHFFFAOYSA-N
COMPOUNDCLASS: Cer_BDS
RETENTIONTIME: 
COMMENT: 
Num Peaks: 6
592.458262	10
546.452783	999
286.238768	999
254.212553	200
244.228203	200
183.175439	100

NAME: Cer 14:0;O2/18:1;3OH
PRECURSORMZ: 584.4896
PRECURSORTYPE: [M+CH3COO]-
IONMODE: Negative
FORMULA: C32H63NO4
SMILES: O=C(NC(CO)C(O)CCCCCCCCCCC)CC(O)CCCCCC=CCCCCCCCC
INCHIKEY: WBUMMBAYPBXBNM-UHFFFAOYSA-N
COMPOUNDCLASS: Cer_BDS
RETENTIONTIME: 
COMMENT: 
Num Peaks: 6
584.489562	10
524.468433	999
286.238768	999
254.212553	200
244.228203	200
183.175439	100

NAME: Cer 14:0;O2/20:4;3OH
PRECURSORMZ: 606.4739
PRECURSORTYPE: [M+CH3COO]-
IONMODE: Negative
FORMULA: C34H61NO4
SMILES: O=C(NC(CO)C(O)CCCCCCCCCCC)CC(O)CCCCC=CCC=CCC=CCC=CCC
INCHIKEY: ZSLLCIDJRWELHX-UHFFFAOYSA-N
COMPOUNDCLASS: Cer_BDS
RETENTIONTIME: 
COMMENT: 
Num Peaks: 6
606.473912	10
546.452783	999
286.238768	999
254.212553	200
244.228203	200
183.175439	100

NAME: Cer 14:0;O2/18:1;3OH
PRECURSORMZ: 524.4684
PRECURSORTYPE: [M-H]-
IONMODE: Negative
FORMULA: C32H63NO4
SMILES: O=C(NC(CO)C(O)CCCCCCCCCCC)CC(O)CCCCCC=CCCCCCCCC
INCHIKEY: WBUMMBAYPBXBNM-UHFFFAOYSA-N
COMPOUNDCLASS: Cer_BDS
RETENTIONTIME: 
COMMENT: 
Num Peaks: 5
524.468433	999
286.238768	999
254.212553	200
244.228203	200
183.175439	100

NAME: Cer 14:0;O2/20:4;3OH
PRECURSORMZ: 546.4528
PRECURSORTYPE: [M-H]-
IONMODE: Negative
FORMULA: C34H61NO4
SMILES: O=C(NC(CO)C(O)CCCCCCCCCCC)CC(O)CCCCC=CCC=CCC=CCC=CCC
INCHIKEY: ZSLLCIDJRWELHX-UHFFFAOYSA-N
COMPOUNDCLASS: Cer_BDS
RETENTIONTIME: 
COMMENT: 
Num Peaks: 5
546.452783	999
286.238768	999
254.212553	200
244.228203	200
183.175439	100

NAME: Cer 18:1;O2/14:0;3OH
PRECURSORMZ: 570.4739
PRECURSORTYPE: [M+HCOO]-
IONMODE: Negative
FORMULA: C32H63NO4
SMILES: O=C(NC(CO)C(O)C=CCCCCCCCCCCCCC)CC(O)CCCCCCCCCCC
INCHIKEY: DWKYQXRDAQWMHL-UHFFFAOYSA-N
COMPOUNDCLASS: Cer_BS
RETENTIONTIME: 
COMMENT: 
Num Peaks: 7
570.473912	10
524.468433	300
506.457868	100
340.285718	999
310.275153	200
263.238039	200
237.222389	200

NAME: Cer 18:1;O2/20:4;3OH
PRECURSORMZ: 646.5052
PRECURSORTYPE: [M+HCOO]-
IONMODE: Negative
FORMULA: C38H67NO4
SMILES: O=C(NC(CO)C(O)C=CCCCCCCCCCCCCC)CC(O)CCCCC=CCC=CCC=CCC=CCC
INCHIKEY: FNDYCCQSFSETPW-UHFFFAOYSA-N
COMPOUNDCLASS: Cer_BS
RETENTIONTIME: 
COMMENT: 
Num Peaks: 7
646.505212	10
600.499733	300
582.489169	100
340.285718	999
310.275153	200
263.238039	200
237.222389	200

NAME: Cer 18:1;O2/14:0;3OH
PRECURSORMZ: 584.4896
PRECURSORTYPE: [M+CH3COO]-
IONMODE: Negative
FORMULA: C32H63NO4
SMILES: O=C(NC(CO)C(O)C=CCCCCCCCCCCCCC)CC(O)CCCCCCCCCCC
INCHIKEY: DWKYQXRDAQWMHL-UHFFFAOYSA-N
COMPOUNDCLASS: Cer_BS
RETENTIONTIME: 
COMMENT: 
Num Peaks: 7
584.489562	10
524.468433	300
506.457868	100
340.285718	999
310.275153	200
263.238039	200
237.222389	200

NAME: Cer 18:1;O2/20:4;3OH
PRECURSORMZ: 660.5209
PRECURSORTYPE: [M+CH3COO]-
IONMODE: Negative
FORMULA: C38H67NO4
SMILES: O=C(NC(CO)C(O)C=CCCCCCCCCCCCCC)CC(O)CCCCC=CCC=CCC=CCC=CCC
INCHIKEY: FNDYCCQSFSETPW-UHFFFAOYSA-N
COMPOUNDCLASS: Cer_BS
RETENTIONTIME: 
COMMENT: 
Num Peaks: 7
660.520863	10
600.499733	300
582.489169	100
340.285718	999
310.275153	200
263.238039	200
237.222389	200

NAME: Cer 18:1;O2/14:0;3OH
PRECURSORMZ: 524.4684
PRECURSORTYPE: [M-H]-
IONMODE: Negative
FORMULA: C32H63NO4
SMILES: O=C(NC(CO)C(O)C=CCCCCCCCCCCCCC)CC(O)CCCCCCCCCCC
INCHIKEY: DWKYQXRDAQWMHL-UHFFFAOYSA-N
COMPOUNDCLASS: Cer_BS
RETENTIONTIME: 
COMMENT: 
Num Peaks: 6
524.468433	300
506.457868	100
340.285718	999
310.275153	200
263.238039	200
237.222389	200

NAME: Cer 18:1;O2/20:4;3OH
PRECURSORMZ: 600.4997
PRECURSORTYPE: [M-H]-
IONMODE: Negative
FORMULA: C38H67NO4
SMILES: O=C(NC(CO)C(O)C=CCCCCCCCCCCCCC)CC(O)CCCCC=CCC=CCC=CCC=CCC
INCHIKEY: FNDYCCQSFSETPW-UHFFFAOYSA-N
COMPOUNDCLASS: Cer_BS
RETENTIONTIME: 
COMMENT: 
Num Peaks: 6
600.499733	300
582.489169	100
340.285718	999
310.275153	200
263.238039	200
237.222389	200

NAME: Cer 14:0;O2/18:1;O
PRECURSORMZ: 508.4724
PRECURSORTYPE: [M+H-H2O]+
IONMODE: Positive
FORMULA: C32H63NO4
SMILES: O=C(NC(CO)C(O)CCCCCCCCCCC)C(O)CCCCCCC=CCCCCCCCC
INCHIKEY: BPBHMMGJTZLKOX-UHFFFAOYSA-N
COMPOUNDCLASS: Cer_HDS
RETENTIONTIME: 
COMMENT: 
Num Peaks: 4
508.472421	999
228.232191	300
210.221626	999
198.221626	300

NAME: Cer 14:0;O2/20:4;O
PRECURSORMZ: 530.4568
PRECURSORTYPE: [M+H-H2O]+
IONMODE: Positive
FORMULA: C34H61NO4
SMILES: O=C(NC(CO)C(O)CCCCCCCCCCC)C(O)CCCCCC=CCC=CCC=CCC=CCC
INCHIKEY: FJVQDCGDDQBLPJ-UHFFFAOYSA-N
COMPOUNDCLASS: Cer_HDS
RETENTIONTIME: 
COMMENT: 
Num Peaks: 4
530.456771	999
228.232191	300
210.221626	999
198.221626	300

NAME: Cer 14:0;O2/18:1;O
PRECURSORMZ: 526.483
PRECURSORTYPE: [M+H]+
IONMODE: Positive
FORMULA: C32H63NO4
SMILES: O=C(NC(CO)C(O)CCCCCCCCCCC)C(O)CCCCCCC=CCCCCCCCC
INCHIKEY: BPBHMMGJTZLKOX-UHFFFAOYSA-N
COMPOUNDCLASS: Cer_HDS
RETENTIONTIME: 
COMMENT: 
Num Peaks: 5
526.482986	5
508.472421	999
228.232191	300
210.221626	999
198.221626	300

NAME: Cer 14:0;O2/20:4;O
PRECURSORMZ: 548.4673
PRECURSORTYPE: [M+H]+
IONMODE: Positive
FORMULA: C34H61NO4
SMILES: O=C(NC(CO)C(O)CCCCCCCCCCC)C(O)CCCCCC=CCC=CCC=CCC=CCC
INCHIKEY: FJVQDCGDDQBLPJ-UHFFFAOYSA-N
COMPOUNDCLASS: Cer_HDS
RETENTIONTIME: 
COMMENT: 
Num Peaks: 5
548.467336	5
530.456771	999
228.232191	300
210.221626	999
198.221626	300

NAME: Cer 14:0;O2/18:1;O
PRECURSORMZ: 548.4649
PRECURSORTYPE: [M+Na]+
IONMODE: Positive
FORMULA: C32H63NO4
SMILES: O=C(NC(CO)C(O)CCCCCCCCCCC)C(O)CCCCCCC=CCCCCCCCC
INCHIKEY: BPBHMMGJTZLKOX-UHFFFAOYSA-N
COMPOUNDCLASS: Cer_HDS
RETENTIONTIME: 
COMMENT: 
Num Peaks: 2
548.46493	999
210.221626	50

NAME: Cer 14:0;O2/20:4;O
PRECURSORMZ: 570.4493
PRECURSORTYPE: [M+Na]+
IONMODE: Positive
FORMULA: C34H61NO4
SMILES: O=C(NC(CO)C(O)CCCCCCCCCCC)C(O)CCCCCC=CCC=CCC=CCC=CCC
INCHIKEY: FJVQDCGDDQBLPJ-UHFFFAOYSA-N
COMPOUNDCLASS: Cer_HDS
RETENTIONTIME: 
COMMENT: 
Num Peaks: 2
570.44928	999
210.221626	50

NAME: Cer 18:1;O2/14:0;O
PRECURSORMZ: 508.4724
PRECURSORTYPE: [M+H-H2O]+
IONMODE: Positive
FORMULA: C32H63NO4
SMILES: O=C(NC(CO)C(O)C=CCCCCCCCCCCCCC)C(O)CCCCCCCCCCCC
INCHIKEY: QTRHWTPSLZLMAL-UHFFFAOYSA-N
COMPOUNDCLASS: Cer_HS
RETENTIONTIME: 
COMMENT: 
Num Peaks: 4
508.472421	999
282.279141	300
264.268576	999
252.268576	300

NAME: Cer 18:1;O2/20:4;O
PRECURSORMZ: 584.5037
PRECURSORTYPE: [M+H-H2O]+
IONMODE: Positive
FORMULA: C38H67NO4
SMILES: O=C(NC(CO)C(O)C=CCCCCCCCCCCCCC)C(O)CCCCCC=CCC=CCC=CCC=CCC
INCHIKEY: ASZNJWAOWWLNNE-UHFFFAOYSA-N
COMPOUNDCLASS: Cer_HS
RETENTIONTIME: 
COMMENT: 
Num Peaks: 4
584.503721	999
282.279141	300
264.268576	999
252.268576	300

NAME: Cer 18:1;O2/14:0;O
PRECURSORMZ: 526.483
PRECURSORTYPE: [M+H]+
IONMODE: Positive
FORMULA: C32H63NO4
SMILES: O=C(NC(CO)C(O)C=CCCCCCCCCCCCCC)C(O)CCCCCCCCCCCC
INCHIKEY: QTRHWTPSLZLMAL-UHFFFAOYSA-N
COMPOUNDCLASS: Cer_HS
RETENTIONTIME: 
COMMENT: 
Num Peaks: 5
526.482986	5
508.472421	999
282.279141	300
264.268576	999
252.268576	300

NAME: Cer 18:1;O2/20:4;O
PRECURSORMZ: 602.5143
PRECURSORTYPE: [M+H]+
IONMODE: Positive
FORMULA: C38H67NO4
SMILES: O=C(NC(CO)C(O)C=CCCCCCCCCCCCCC)C(O)CCCCCC=CCC=CCC=CCC=CCC
INCHIKEY: ASZNJWAOWWLNNE-UHFFFAOYSA-N
COMPOUNDCLASS: Cer_HS
RETENTIONTIME: 
COMMENT: 
Num Peaks: 5
602.514286	5
584.503721	999
282.279141	300
264.268576	999
252.268576	300

NAME: Cer 18:1;O2/14:0;O
PRECURSORMZ: 548.4649
PRECURSORTYPE: [M+Na]+
IONMODE: Positive
FORMULA: C32H63NO4
SMILES: O=C(NC(CO)C(O)C=CCCCCCCCCCCCCC)C(O)CCCCCCCCCCCC
INCHIKEY: QTRHWTPSLZLMAL-UHFFFAOYSA-N
COMPOUNDCLASS: Cer_HS
RETENTIONTIME: 
COMMENT: 
Num Peaks: 2
548.46493	999
264.268576	50

NAME: Cer 18:1;O2/20:4;O
PRECURSORMZ: 624.4962
PRECURSORTYPE: [M+Na]+
IONMODE: Positive
FORMULA: C38H67NO4
SMILES: O=C(NC(CO)C(O)C=CCCCCCCCCCCCCC)C(O)CCCCCC=CCC=CCC=CCC=CCC
INCHIKEY: ASZNJWAOWWLNNE-UHFFFAOYSA-N
COMPOUNDCLASS: Cer_HS
RETENTIONTIME: 
COMMENT: 
Num Peaks: 2
624.49623	999
264.268576	50

NAME: Cer 14:0;O2/18:1
PRECURSORMZ: 554.479
PRECURSORTYPE: [M+HCOO]-
IONMODE: Negative
FORMULA: C32H63NO3
SMILES: O=C(NC(CO)C(O)CCCCCCCCCCC)CCCCCCCC=CCCCCCCCC
INCHIKEY: QIHCOBHOJBJGKC-UHFFFAOYSA-N
COMPOUNDCLASS: Cer_NDS
RETENTIONTIME: 
COMMENT: 
Num Peaks: 10
554.478998	10
508.473518	999
476.447304	300
460.452389	200
322.275153	300
306.280238	400
280.264588	100
263.238039	200
244.228203	50
183.175439	300

NAME: Cer 14:0;O2/20:4
PRECURSORMZ: 576.4633
PRECURSORTYPE: [M+HCOO]-
IONMODE: Negative
FORMULA: C34H61NO3
SMILES: O=C(NC(CO)C(O)CCCCCCCCCCC)CCCCCCC=CCC=CCC=CCC=CCC
INCHIKEY: DBALYFLHCFPLIE-UHFFFAOYSA-N
COMPOUNDCLASS: Cer_NDS
RETENTIONTIME: 
COMMENT: 
Num Peaks: 10
576.463348	10
530.457868	999
498.431654	300
482.436739	200
344.259503	300
328.264588	400
302.248938	100
285.222389	200
244.228203	50
183.175439	300

NAME: Cer 14:0;O2/18:1
PRECURSORMZ: 492.4775
PRECURSORTYPE: [M+H-H2O]+
IONMODE: Positive
FORMULA: C32H63NO3
SMILES: O=C(NC(CO)C(O)CCCCCCCCCCC)CCCCCCCC=CCCCCCCCC
INCHIKEY: QIHCOBHOJBJGKC-UHFFFAOYSA-N
COMPOUNDCLASS: Cer_NDS
RETENTIONTIME: 
COMMENT: 
Num Peaks: 6
492.477507	100
474.466942	100
282.279141	100
228.232191	200
210.221626	999
198.221626	200

NAME: Cer 14:0;O2/20:4
PRECURSORMZ: 514.4619
PRECURSORTYPE: [M+H-H2O]+
IONMODE: Positive
FORMULA: C34H61NO3
SMILES: O=C(NC(CO)C(O)CCCCCCCCCCC)CCCCCCC=CCC=CCC=CCC=CCC
INCHIKEY: DBALYFLHCFPLIE-UHFFFAOYSA-N
COMPOUNDCLASS: Cer_NDS
RETENTIONTIME: 
COMMENT: 
Num Peaks: 6
514.461857	100
496.451292	100
304.263491	100
228.232191	200
210.221626	999
198.221626	200

NAME: Cer 14:0;O2/18:1
PRECURSORMZ: 568.4946
PRECURSORTYPE: [M+CH3COO]-
IONMODE: Negative
FORMULA: C32H63NO3
SMILES: O=C(NC(CO)C(O)CCCCCCCCCCC)CCCCCCCC=CCCCCCCCC
INCHIKEY: QIHCOBHOJBJGKC-UHFFFAOYSA-N
COMPOUNDCLASS: Cer_NDS
RETENTIONTIME: 
COMMENT: 
Num Peaks: 10
568.494648	10
508.473518	999
476.447304	300
460.452389	200
322.275153	300
306.280238	400
280.264588	100
263.238039	200
244.228203	50
183.175439	300

NAME: Cer 14:0;O2/20:4
PRECURSORMZ: 590.479
PRECURSORTYPE: [M+CH3COO]-
IONMODE: Negative
FORMULA: C34H61NO3
SMILES: O=C(NC(CO)C(O)CCCCCCCCCCC)CCCCCCC=CCC=CCC=CCC=CCC
INCHIKEY: DBALYFLHCFPLIE-UHFFFAOYSA-N
COMPOUNDCLASS: Cer_NDS
RETENTIONTIME: 
COMMENT: 
Num Peaks: 10
590.478998	10
530.457868	999
498.431654	300
482.436739	200
344.259503	300
328.264588	400
302.248938	100
285.222389	200
244.228203	50
183.175439	300

NAME: Cer 14:0;O2/18:1
PRECURSORMZ: 508.4735
PRECURSORTYPE: [M-H]-
IONMODE: Negative
FORMULA: C32H63NO3
SMILES: O=C(NC(CO)C(O)CCCCCCCCCCC)CCCCCCCC=CCCCCCCCC
INCHIKEY: QIHCOBHOJBJGKC-UHFFFAOYSA-N
COMPOUNDCLASS: Cer_NDS
RETENTIONTIME: 
COMMENT: 
Num Peaks: 9
508.473518	999
476.447304	300
460.452389	200
322.275153	300
306.280238	400
280.264588	100
263.238039	200
244.228203	50
183.175439	300

NAME: Cer 14:0;O2/20:4
PRECURSORMZ: 530.4579
PRECURSORTYPE: [M-H]-
IONMODE: Negative
FORMULA: C34H61NO3
SMILES: O=C(NC(CO)C(O)CCCCCCCCCCC)CCCCCCC=CCC=CCC=CCC=CCC
INCHIKEY: DBALYFLHCFPLIE-UHFFFAOYSA-N
COMPOUNDCLASS: Cer_NDS
RETENTIONTIME: 
COMMENT: 
Num Peaks: 9
530.457868	999
498.431654	300
482.436739	200
344.259503	300
328.264588	400
302.248938	100
285.222389	200
244.228203	50
183.175439	300

NAME: Cer 14:0;O2/18:1
PRECURSORMZ: 510.4881
PRECURSORTYPE: [M+H]+
IONMODE: Positive
FORMULA: C32H63NO3
SMILES: O=C(NC(CO)C(O)CCCCCCCCCCC)CCCCCCCC=CCCCCCCCC
INCHIKEY: QIHCOBHOJBJGKC-UHFFFAOYSA-N
COMPOUNDCLASS: Cer_NDS
RETENTIONTIME: 
COMMENT: 
Num Peaks: 7
510.488071	50
492.477507	100
474.466942	100
282.279141	100
228.232191	200
210.221626	999
198.221626	200

NAME: Cer 14:0;O2/20:4
PRECURSORMZ: 532.4724
PRECURSORTYPE: [M+H]+
IONMODE: Positive
FORMULA: C34H61NO3
SMILES: O=C(NC(CO)C(O)CCCCCCCCCCC)CCCCCCC=CCC=CCC=CCC=CCC
INCHIKEY: DBALYFLHCFPLIE-UHFFFAOYSA-N
COMPOUNDCLASS: Cer_NDS
RETENTIONTIME: 
COMMENT: 
Num Peaks: 7
532.472421	50
514.461857	100
496.451292	100
304.263491	100
228.232191	200
210.221626	999
198.221626	200

NAME: Cer 14:0;O2/18:1
PRECURSORMZ: 532.47
PRECURSORTYPE: [M+Na]+
IONMODE: Positive
FORMULA: C32H63NO3
SMILES: O=C(NC(CO)C(O)CCCCCCCCCCC)CCCCCCCC=CCCCCCCCC
INCHIKEY: QIHCOBHOJBJGKC-UHFFFAOYSA-N
COMPOUNDCLASS: Cer_NDS
RETENTIONTIME: 
COMMENT: 
Num Peaks: 2
532.470016	999
210.221626	50

NAME: Cer 14:0;O2/20:4
PRECURSORMZ: 554.4544
PRECURSORTYPE: [M+Na]+
IONMODE: Positive
FORMULA: C34H61NO3
SMILES: O=C(NC(CO)C(O)CCCCCCCCCCC)CCCCCCC=CCC=CCC=CCC=CCC
INCHIKEY: DBALYFLHCFPLIE-UHFFFAOYSA-N
COMPOUNDCLASS: Cer_NDS
RETENTIONTIME: 
COMMENT: 
Num Peaks: 2
554.454366	999
210.221626	50

NAME: Cer 14:0;O3/18:1
PRECURSORMZ: 570.4739
PRECURSORTYPE: [M+HCOO]-
IONMODE: Negative
FORMULA: C32H63NO4
SMILES: O=C(NC(CO)C(O)C(O)CCCCCCCCCC)CCCCCCCC=CCCCCCCCC
INCHIKEY: INENOSXDOADVNF-UHFFFAOYSA-N
COMPOUNDCLASS: Cer_NP
RETENTIONTIME: 
COMMENT: 
Num Peaks: 13
570.473912	10
524.468433	999
506.457868	100
488.447304	200
336.290803	700
324.290803	700
322.275153	200
306.280238	200
281.248604	500
280.264588	250
211.170354	500
199.170354	200
169.159789	50

NAME: Cer 14:0;O3/20:4
PRECURSORMZ: 592.4583
PRECURSORTYPE: [M+HCOO]-
IONMODE: Negative
FORMULA: C34H61NO4
SMILES: O=C(NC(CO)C(O)C(O)CCCCCCCCCC)CCCCCCC=CCC=CCC=CCC=CCC
INCHIKEY: BRWLEZGVFNUPND-UHFFFAOYSA-N
COMPOUNDCLASS: Cer_NP
RETENTIONTIME: 
COMMENT: 
Num Peaks: 13
592.458262	10
546.452783	999
528.442218	100
510.431654	200
358.275153	700
346.275153	700
344.259503	200
328.264588	200
303.232954	500
302.248938	250
211.170354	500
199.170354	200
169.159789	50

NAME: Cer 18:1;O3/14:0
PRECURSORMZ: 570.4739
PRECURSORTYPE: [M+HCOO]-
IONMODE: Negative
FORMULA: C32H63NO4
SMILES: O=C(NC(CO)C(O)C(O)CCCC=CCCCCCCCCC)CCCCCCCCCCCCC
INCHIKEY: CAMZKUPIYHEWEM-UHFFFAOYSA-N
COMPOUNDCLASS: Cer_NP
RETENTIONTIME: 
COMMENT: 
Num Peaks: 13
570.473912	10
524.468433	999
506.457868	100
488.447304	200
282.243853	700
270.243853	700
268.228203	200
265.217304	500
253.217304	200
252.233288	200
227.201654	500
226.217638	250
223.206739	50

NAME: Cer 18:1;O3/20:4
PRECURSORMZ: 646.5052
PRECURSORTYPE: [M+HCOO]-
IONMODE: Negative
FORMULA: C38H67NO4
SMILES: O=C(NC(CO)C(O)C(O)CCCC=CCCCCCCCCC)CCCCCCC=CCC=CCC=CCC=CCC
INCHIKEY: BALKVZXHIJAOEQ-UHFFFAOYSA-N
COMPOUNDCLASS: Cer_NP
RETENTIONTIME: 
COMMENT: 
Num Peaks: 13
646.505212	10
600.499733	999
582.489169	100
564.478604	200
358.275153	700
346.275153	700
344.259503	200
328.264588	200
303.232954	500
302.248938	250
265.217304	500
253.217304	200
223.206739	50

NAME: Cer 14:0;O3/18:1
PRECURSORMZ: 584.4896
PRECURSORTYPE: [M+CH3COO]-
IONMODE: Negative
FORMULA: C32H63NO4
SMILES: O=C(NC(CO)C(O)C(O)CCCCCCCCCC)CCCCCCCC=CCCCCCCCC
INCHIKEY: INENOSXDOADVNF-UHFFFAOYSA-N
COMPOUNDCLASS: Cer_NP
RETENTIONTIME: 
COMMENT: 
Num Peaks: 13
584.489562	10
524.468433	999
506.457868	100
488.447304	200
336.290803	700
324.290803	700
322.275153	200
306.280238	200
281.248604	500
280.264588	250
211.170354	500
199.170354	200
169.159789	50

NAME: Cer 14:0;O3/20:4
PRECURSORMZ: 606.4739
PRECURSORTYPE: [M+CH3COO]-
IONMODE: Negative
FORMULA: C34H61NO4
SMILES: O=C(NC(CO)C(O)C(O)CCCCCCCCCC)CCCCCCC=CCC=CCC=CCC=CCC
INCHIKEY: BRWLEZGVFNUPND-UHFFFAOYSA-N
COMPOUNDCLASS: Cer_NP
RETENTIONTIME: 
COMMENT: 
Num Peaks: 13
606.473912	10
546.452783	999
528.442218	100
510.431654	200
358.275153	700
346.275153	700
344.259503	200
328.264588	200
303.232954	500
302.248938	250
211.170354	500
199.170354	200
169.159789	50

NAME: Cer 18:1;O3/14:0
PRECURSORMZ: 584.4896
PRECURSORTYPE: [M+CH3COO]-
IONMODE: Negative
FORMULA: C32H63NO4
SMILES: O=C(NC(CO)C(O)C(O)CCCC=CCCCCCCCCC)CCCCCCCCCCCCC
INCHIKEY: CAMZKUPIYHEWEM-UHFFFAOYSA-N
COMPOUNDCLASS: Cer_NP
RETENTIONTIME: 
COMMENT: 
Num Peaks: 13
584.489562	10
524.468433	999
506.457868	100
488.447304	200
282.243853	700
270.243853	700
268.228203	200
265.217304	500
253.217304	200
252.233288	200
227.201654	500
226.217638	250
223.206739	50

NAME: Cer 18:1;O3/20:4
PRECURSORMZ: 660.5209
PRECURSORTYPE: [M+CH3COO]-
IONMODE: Negative
FORMULA: C38H67NO4
SMILES: O=C(NC(CO)C(O)C(O)CCCC=CCCCCCCCCC)CCCCCCC=CCC=CCC=CCC=CCC
INCHIKEY: BALKVZXHIJAOEQ-UHFFFAOYSA-N
COMPOUNDCLASS: Cer_NP
RETENTIONTIME: 
COMMENT: 
Num Peaks: 13
660.520863	10
600.499733	999
582.489169	100
564.478604	200
358.275153	700
346.275153	700
344.259503	200
328.264588	200
303.232954	500
302.248938	250
265.217304	500
253.217304	200
223.206739	50

NAME: Cer 14:0;O3/18:1
PRECURSORMZ: 524.4684
PRECURSORTYPE: [M-H]-
IONMODE: Negative
FORMULA: C32H63NO4
SMILES: O=C(NC(CO)C(O)C(O)CCCCCCCCCC)CCCCCCCC=CCCCCCCCC
INCHIKEY: INENOSXDOADVNF-UHFFFAOYSA-N
COMPOUNDCLASS: Cer_NP
RETENTIONTIME: 
COMMENT: 
Num Peaks: 12
524.468433	999
506.457868	100
488.447304	200
336.290803	700
324.290803	700
322.275153	200
306.280238	200
281.248604	500
280.264588	250
211.170354	500
199.170354	200
169.159789	50

NAME: Cer 14:0;O3/20:4
PRECURSORMZ: 546.4528
PRECURSORTYPE: [M-H]-
IONMODE: Negative
FORMULA: C34H61NO4
SMILES: O=C(NC(CO)C(O)C(O)CCCCCCCCCC)CCCCCCC=CCC=CCC=CCC=CCC
INCHIKEY: BRWLEZGVFNUPND-UHFFFAOYSA-N
COMPOUNDCLASS: Cer_NP
RETENTIONTIME: 
COMMENT: 
Num Peaks: 12
546.452783	999
528.442218	100
510.431654	200
358.275153	700
346.275153	700
344.259503	200
328.264588	200
303.232954	500
302.248938	250
211.170354	500
199.170354	200
169.159789	50

NAME: Cer 18:1;O3/14:0
PRECURSORMZ: 524.4684
PRECURSORTYPE: [M-H]-
IONMODE: Negative
FORMULA: C32H63NO4
SMILES: O=C(NC(CO)C(O)C(O)CCCC=CCCCCCCCCC)CCCCCCCCCCCCC
INCHIKEY: CAMZKUPIYHEWEM-UHFFFAOYSA-N
COMPOUNDCLASS: Cer_NP
RETENTIONTIME: 
COMMENT: 
Num Peaks: 12
524.468433	999
506.457868	100
488.447304	200
282.243853	700
270.243853	700
268.228203	200
265.217304	500
253.217304	200
252.233288	200
227.201654	500
226.217638	250
223.206739	50

NAME: Cer 18:1;O3/20:4
PRECURSORMZ: 600.4997
PRECURSORTYPE: [M-H]-
IONMODE: Negative
FORMULA: C38H67NO4
SMILES: O=C(NC(CO)C(O)C(O)CCCC=CCCCCCCCCC)CCCCCCC=CCC=CCC=CCC=CCC
INCHIKEY: BALKVZXHIJAOEQ-UHFFFAOYSA-N
COMPOUNDCLASS: Cer_NP
RETENTIONTIME: 
COMMENT: 
Num Peaks: 12
600.499733	999
582.489169	100
564.478604	200
358.275153	700
346.275153	700
344.259503	200
328.264588	200
303.232954	500
302.248938	250
265.217304	500
253.217304	200
223.206739	50

NAME: Cer 14:0;O3/18:1
PRECURSORMZ: 526.483
PRECURSORTYPE: [M+H]+
IONMODE: Positive
FORMULA: C32H63NO4
SMILES: O=C(NC(CO)C(O)C(O)CCCCCCCCCC)CCCCCCCC=CCCCCCCCC
INCHIKEY: INENOSXDOADVNF-UHFFFAOYSA-N
COMPOUNDCLASS: Cer_NP
RETENTIONTIME: 
COMMENT: 
Num Peaks: 8
526.482986	50
508.472421	800
490.461857	200
280.263491	300
244.227106	800
226.216541	800
208.205976	999
196.205976	200

NAME: Cer 14:0;O3/20:4
PRECURSORMZ: 548.4673
PRECURSORTYPE: [M+H]+
IONMODE: Positive
FORMULA: C34H61NO4
SMILES: O=C(NC(CO)C(O)C(O)CCCCCCCCCC)CCCCCCC=CCC=CCC=CCC=CCC
INCHIKEY: BRWLEZGVFNUPND-UHFFFAOYSA-N
COMPOUNDCLASS: Cer_NP
RETENTIONTIME: 
COMMENT: 
Num Peaks: 8
548.467336	50
530.456771	800
512.446206	200
302.247841	300
244.227106	800
226.216541	800
208.205976	999
196.205976	200

NAME: Cer 18:1;O3/14:0
PRECURSORMZ: 526.483
PRECURSORTYPE: [M+H]+
IONMODE: Positive
FORMULA: C32H63NO4
SMILES: O=C(NC(CO)C(O)C(O)CCCC=CCCCCCCCCC)CCCCCCCCCCCCC
INCHIKEY: CAMZKUPIYHEWEM-UHFFFAOYSA-N
COMPOUNDCLASS: Cer_NP
RETENTIONTIME: 
COMMENT: 
Num Peaks: 8
526.482986	50
508.472421	800
490.461857	200
298.274056	800
280.263491	800
262.252926	999
250.252926	200
226.216541	300

NAME: Cer 18:1;O3/20:4
PRECURSORMZ: 602.5143
PRECURSORTYPE: [M+H]+
IONMODE: Positive
FORMULA: C38H67NO4
SMILES: O=C(NC(CO)C(O)C(O)CCCC=CCCCCCCCCC)CCCCCCC=CCC=CCC=CCC=CCC
INCHIKEY: BALKVZXHIJAOEQ-UHFFFAOYSA-N
COMPOUNDCLASS: Cer_NP
RETENTIONTIME: 
COMMENT: 
Num Peaks: 8
602.514286	50
584.503721	800
566.493157	200
302.247841	300
298.274056	800
280.263491	800
262.252926	999
250.252926	200

NAME: Cer 14:0;O3/18:1
PRECURSORMZ: 548.4649
PRECURSORTYPE: [M+Na]+
IONMODE: Positive
FORMULA: C32H63NO4
SMILES: O=C(NC(CO)C(O)C(O)CCCCCCCCCC)CCCCCCCC=CCCCCCCCC
INCHIKEY: INENOSXDOADVNF-UHFFFAOYSA-N
COMPOUNDCLASS: Cer_NP
RETENTIONTIME: 
COMMENT: 
Num Peaks: 2
548.46493	999
226.216541	50

NAME: Cer 14:0;O3/20:4
PRECURSORMZ: 570.4493
PRECURSORTYPE: [M+Na]+
IONMODE: Positive
FORMULA: C34H61NO4
SMILES: O=C(NC(CO)C(O)C(O)CCCCCCCCCC)CCCCCCC=CCC=CCC=CCC=CCC
INCHIKEY: BRWLEZGVFNUPND-UHFFFAOYSA-N
COMPOUNDCLASS: Cer_NP
RETENTIONTIME: 
COMMENT: 
Num Peaks: 2
570.44928	999
226.216541	50

NAME: Cer 18:1;O3/14:0
PRECURSORMZ: 548.4649
PRECURSORTYPE: [M+Na]+
IONMODE: Positive
FORMULA: C32H63NO4
SMILES: O=C(NC(CO)C(O)C(O)CCCC=CCCCCCCCCC)CCCCCCCCCCCCC
INCHIKEY: CAMZKUPIYHEWEM-UHFFFAOYSA-N
COMPOUNDCLASS: Cer_NP
RETENTIONTIME: 
COMMENT: 
Num Peaks: 2
548.46493	999
280.263491	50

NAME: Cer 18:1;O3/20:4
PRECURSORMZ: 624.4962
PRECURSORTYPE: [M+Na]+
IONMODE: Positive
FORMULA: C38H67NO4
SMILES: O=C(NC(CO)C(O)C(O)CCCC=CCCCCCCCCC)CCCCCCC=CCC=CCC=CCC=CCC
INCHIKEY: BALKVZXHIJAOEQ-UHFFFAOYSA-N
COMPOUNDCLASS: Cer_NP
RETENTIONTIME: 
COMMENT: 
Num Peaks: 2
624.49623	999
280.263491	50

NAME: Cer_d7 18:1;O2/32:0
PRECURSORMZ: 813.8046
PRECURSORTYPE: [M+HCOO]-
IONMODE: Negative
FORMULA: C50H92D7NO3
SMILES: OCC(NC(CCCCCCCCCCCCCCCCCCCCCCCCCCCCCCC)=O)C(\C=C\CCCCCCCCCCC(C(C([2H])([2H])[2H])([2H])[2H])([2H])[2H])O
INCHIKEY: MUQBXENBHQWWAY-GXZBWUKWSA-N
COMPOUNDCLASS: Cer_NS_d7
RETENTIONTIME: 
COMMENT: 
Num Peaks: 11
813.804636	100
767.799157	999
737.788592	300
735.772942	200
719.778027	200
520.509904	200
504.514989	500
478.499339	300
461.47279	300
270.281976	300
244.266326	300

NAME: Cer_d7 18:1;O2/32:0
PRECURSORMZ: 751.8031
PRECURSORTYPE: [M+H-H2O]+
IONMODE: Positive
FORMULA: C50H92D7NO3
SMILES: OCC(NC(CCCCCCCCCCCCCCCCCCCCCCCCCCCCCCC)=O)C(\C=C\CCCCCCCCCCC(C(C([2H])([2H])[2H])([2H])[2H])([2H])[2H])O
INCHIKEY: MUQBXENBHQWWAY-GXZBWUKWSA-N
COMPOUNDCLASS: Cer_NS_d7
RETENTIONTIME: 
COMMENT: 
Num Peaks: 6
751.803145	100
733.79258	100
480.513892	100
289.323078	200
271.312514	999
259.312514	200

NAME: Cer_d7 18:1;O2/32:0
PRECURSORMZ: 827.8203
PRECURSORTYPE: [M+CH3COO]-
IONMODE: Negative
FORMULA: C50H92D7NO3
SMILES: OCC(NC(CCCCCCCCCCCCCCCCCCCCCCCCCCCCCCC)=O)C(\C=C\CCCCCCCCCCC(C(C([2H])([2H])[2H])([2H])[2H])([2H])[2H])O
INCHIKEY: MUQBXENBHQWWAY-GXZBWUKWSA-N
COMPOUNDCLASS: Cer_NS_d7
RETENTIONTIME: 
COMMENT: 
Num Peaks: 11
827.820286	100
767.799157	999
737.788592	300
735.772942	200
719.778027	200
520.509904	200
504.514989	500
478.499339	300
461.47279	300
270.281976	300
244.266326	300

NAME: Cer_d7 18:1;O2/32:0
PRECURSORMZ: 767.7992
PRECURSORTYPE: [M-H]-
IONMODE: Negative
FORMULA: C50H92D7NO3
SMILES: OCC(NC(CCCCCCCCCCCCCCCCCCCCCCCCCCCCCCC)=O)C(\C=C\CCCCCCCCCCC(C(C([2H])([2H])[2H])([2H])[2H])([2H])[2H])O
INCHIKEY: MUQBXENBHQWWAY-GXZBWUKWSA-N
COMPOUNDCLASS: Cer_NS_d7
RETENTIONTIME: 
COMMENT: 
Num Peaks: 10
767.799157	999
737.788592	300
735.772942	200
719.778027	200
520.509904	200
504.514989	500
478.499339	300
461.47279	300
270.281976	300
244.266326	300

NAME: Cer_d7 18:1;O2/32:0
PRECURSORMZ: 769.8137
PRECURSORTYPE: [M+H]+
IONMODE: Positive
FORMULA: C50H92D7NO3
SMILES: OCC(NC(CCCCCCCCCCCCCCCCCCCCCCCCCCCCCCC)=O)C(\C=C\CCCCCCCCCCC(C(C([2H])([2H])[2H])([2H])[2H])([2H])[2H])O
INCHIKEY: MUQBXENBHQWWAY-GXZBWUKWSA-N
COMPOUNDCLASS: Cer_NS_d7
RETENTIONTIME: 
COMMENT: 
Num Peaks: 7
769.81371	50
751.803145	100
733.79258	100
480.513892	100
289.323078	200
271.312514	999
259.312514	200

NAME: Cer_d7 18:1;O2/32:0
PRECURSORMZ: 791.7957
PRECURSORTYPE: [M+Na]+
IONMODE: Positive
FORMULA: C50H92D7NO3
SMILES: OCC(NC(CCCCCCCCCCCCCCCCCCCCCCCCCCCCCCC)=O)C(\C=C\CCCCCCCCCCC(C(C([2H])([2H])[2H])([2H])[2H])([2H])[2H])O
INCHIKEY: MUQBXENBHQWWAY-GXZBWUKWSA-N
COMPOUNDCLASS: Cer_NS_d7
RETENTIONTIME: 
COMMENT: 
Num Peaks: 2
791.795654	999
271.312514	50

NAME: Cer 18:1;O2/14:0
PRECURSORMZ: 554.479
PRECURSORTYPE: [M+HCOO]-
IONMODE: Negative
FORMULA: C32H63NO3
SMILES: O=C(NC(CO)C(O)C=CCCCCCCCCCCCCC)CCCCCCCCCCCCC
INCHIKEY: ZKRPGPZHULJLKJ-UHFFFAOYSA-N
COMPOUNDCLASS: Cer_NS
RETENTIONTIME: 
COMMENT: 
Num Peaks: 11
554.478998	100
508.473518	999
478.462954	300
476.447304	200
460.452389	200
268.228203	200
263.238039	300
252.233288	500
237.222389	300
226.217638	300
209.191089	300

NAME: Cer 18:1;O2/20:4
PRECURSORMZ: 630.5103
PRECURSORTYPE: [M+HCOO]-
IONMODE: Negative
FORMULA: C38H67NO3
SMILES: O=C(NC(CO)C(O)C=CCCCCCCCCCCCCC)CCCCCCC=CCC=CCC=CCC=CCC
INCHIKEY: VSYWEZHQFWHKJK-UHFFFAOYSA-N
COMPOUNDCLASS: Cer_NS
RETENTIONTIME: 
COMMENT: 
Num Peaks: 11
630.510298	100
584.504819	999
554.494254	300
552.478604	200
536.483689	200
344.259503	200
328.264588	500
302.248938	300
285.222389	300
263.238039	300
237.222389	300

NAME: Cer 18:1;O2/14:0
PRECURSORMZ: 492.4775
PRECURSORTYPE: [M+H-H2O]+
IONMODE: Positive
FORMULA: C32H63NO3
SMILES: O=C(NC(CO)C(O)C=CCCCCCCCCCCCCC)CCCCCCCCCCCCC
INCHIKEY: ZKRPGPZHULJLKJ-UHFFFAOYSA-N
COMPOUNDCLASS: Cer_NS
RETENTIONTIME: 
COMMENT: 
Num Peaks: 6
492.477507	100
474.466942	100
282.279141	200
264.268576	999
252.268576	200
228.232191	100

NAME: Cer 18:1;O2/20:4
PRECURSORMZ: 568.5088
PRECURSORTYPE: [M+H-H2O]+
IONMODE: Positive
FORMULA: C38H67NO3
SMILES: O=C(NC(CO)C(O)C=CCCCCCCCCCCCCC)CCCCCCC=CCC=CCC=CCC=CCC
INCHIKEY: VSYWEZHQFWHKJK-UHFFFAOYSA-N
COMPOUNDCLASS: Cer_NS
RETENTIONTIME: 
COMMENT: 
Num Peaks: 6
568.508807	100
550.498242	100
304.263491	100
282.279141	200
264.268576	999
252.268576	200

NAME: Cer 18:1;O2/14:0
PRECURSORMZ: 568.4946
PRECURSORTYPE: [M+CH3COO]-
IONMODE: Negative
FORMULA: C32H63NO3
SMILES: O=C(NC(CO)C(O)C=CCCCCCCCCCCCCC)CCCCCCCCCCCCC
INCHIKEY: ZKRPGPZHULJLKJ-UHFFFAOYSA-N
COMPOUNDCLASS: Cer_NS
RETENTIONTIME: 
COMMENT: 
Num Peaks: 11
568.494648	100
508.473518	999
478.462954	300
476.447304	200
460.452389	200
268.228203	200
263.238039	300
252.233288	500
237.222389	300
226.217638	300
209.191089	300

NAME: Cer 18:1;O2/20:4
PRECURSORMZ: 644.5259
PRECURSORTYPE: [M+CH3COO]-
IONMODE: Negative
FORMULA: C38H67NO3
SMILES: O=C(NC(CO)C(O)C=CCCCCCCCCCCCCC)CCCCCCC=CCC=CCC=CCC=CCC
INCHIKEY: VSYWEZHQFWHKJK-UHFFFAOYSA-N
COMPOUNDCLASS: Cer_NS
RETENTIONTIME: 
COMMENT: 
Num Peaks: 11
644.525948	100
584.504819	999
554.494254	300
552.478604	200
536.483689	200
344.259503	200
328.264588	500
302.248938	300
285.222389	300
263.238039	300
237.222389	300

NAME: Cer 18:1;O2/14:0
PRECURSORMZ: 508.4735
PRECURSORTYPE: [M-H]-
IONMODE: Negative
FORMULA: C32H63NO3
SMILES: O=C(NC(CO)C(O)C=CCCCCCCCCCCCCC)CCCCCCCCCCCCC
INCHIKEY: ZKRPGPZHULJLKJ-UHFFFAOYSA-N
COMPOUNDCLASS: Cer_NS
RETENTIONTIME: 
COMMENT: 
Num Peaks: 10
508.473518	999
478.462954	300
476.447304	200
460.452389	200
268.228203	200
263.238039	300
252.233288	500
237.222389	300
226.217638	300
209.191089	300

NAME: Cer 18:1;O2/20:4
PRECURSORMZ: 584.5048
PRECURSORTYPE: [M-H]-
IONMODE: Negative
FORMULA: C38H67NO3
SMILES: O=C(NC(CO)C(O)C=CCCCCCCCCCCCCC)CCCCCCC=CCC=CCC=CCC=CCC
INCHIKEY: VSYWEZHQFWHKJK-UHFFFAOYSA-N
COMPOUNDCLASS: Cer_NS
RETENTIONTIME: 
COMMENT: 
Num Peaks: 10
584.504819	999
554.494254	300
552.478604	200
536.483689	200
344.259503	200
328.264588	500
302.248938	300
285.222389	300
263.238039	300
237.222389	300

NAME: Cer 18:1;O2/14:0
PRECURSORMZ: 510.4881
PRECURSORTYPE: [M+H]+
IONMODE: Positive
FORMULA: C32H63NO3
SMILES: O=C(NC(CO)C(O)C=CCCCCCCCCCCCCC)CCCCCCCCCCCCC
INCHIKEY: ZKRPGPZHULJLKJ-UHFFFAOYSA-N
COMPOUNDCLASS: Cer_NS
RETENTIONTIME: 
COMMENT: 
Num Peaks: 7
510.488071	50
492.477507	100
474.466942	100
282.279141	200
264.268576	999
252.268576	200
228.232191	100

NAME: Cer 18:1;O2/20:4
PRECURSORMZ: 586.5194
PRECURSORTYPE: [M+H]+
IONMODE: Positive
FORMULA: C38H67NO3
SMILES: O=C(NC(CO)C(O)C=CCCCCCCCCCCCCC)CCCCCCC=CCC=CCC=CCC=CCC
INCHIKEY: VSYWEZHQFWHKJK-UHFFFAOYSA-N
COMPOUNDCLASS: Cer_NS
RETENTIONTIME: 
COMMENT: 
Num Peaks: 7
586.519371	50
568.508807	100
550.498242	100
304.263491	100
282.279141	200
264.268576	999
252.268576	200

NAME: Cer 18:1;O2/14:0
PRECURSORMZ: 532.47
PRECURSORTYPE: [M+Na]+
IONMODE: Positive
FORMULA: C32H63NO3
SMILES: O=C(NC(CO)C(O)C=CCCCCCCCCCCCCC)CCCCCCCCCCCCC
INCHIKEY: ZKRPGPZHULJLKJ-UHFFFAOYSA-N
COMPOUNDCLASS: Cer_NS
RETENTIONTIME: 
COMMENT: 
Num Peaks: 2
532.470016	999
264.268576	50

NAME: Cer 18:1;O2/20:4
PRECURSORMZ: 608.5013
PRECURSORTYPE: [M+Na]+
IONMODE: Positive
FORMULA: C38H67NO3
SMILES: O=C(NC(CO)C(O)C=CCCCCCCCCCCCCC)CCCCCCC=CCC=CCC=CCC=CCC
INCHIKEY: VSYWEZHQFWHKJK-UHFFFAOYSA-N
COMPOUNDCLASS: Cer_NS
RETENTIONTIME: 
COMMENT: 
Num Peaks: 2
608.501316	999
264.268576	50

NAME: SM 14:0;O2/18:1
PRECURSORMZ: 719.5345
PRECURSORTYPE: [M+HCOO]-
IONMODE: Negative
FORMULA: C37H75N2O6P
SMILES: O=C(NC(COP(=O)([O-])OCC[N+](C)(C)C)C(O)CCCCCCCCCCC)CCCCCCCC=CCCCCCCCC
INCHIKEY: QAYQKAURCXIWFW-UHFFFAOYSA-N
COMPOUNDCLASS: SM
RETENTIONTIME: 
COMMENT: 
Num Peaks: 5
719.534478	100
659.513348	999
395.268033	10
168.043118	200
78.959054	50

NAME: SM 14:0;O2/20:4
PRECURSORMZ: 741.5188
PRECURSORTYPE: [M+HCOO]-
IONMODE: Negative
FORMULA: C39H73N2O6P
SMILES: O=C(NC(COP(=O)([O-])OCC[N+](C)(C)C)C(O)CCCCCCCCCCC)CCCCCCC=CCC=CCC=CCC=CCC
INCHIKEY: UNWPDDDERBPSDL-UHFFFAOYSA-N
COMPOUNDCLASS: SM
RETENTIONTIME: 
COMMENT: 
Num Peaks: 5
741.518828	100
681.497698	999
395.268033	10
168.043118	200
78.959054	50

NAME: SM 18:1;O2/14:0
PRECURSORMZ: 719.5345
PRECURSORTYPE: [M+HCOO]-
IONMODE: Negative
FORMULA: C37H75N2O6P
SMILES: O=C(NC(COP(=O)([O-])OCC[N+](C)(C)C)C(O)C=CCCCCCCCCCCCCC)CCCCCCCCCCCCC
INCHIKEY: KYICBZWZQPCUMO-UHFFFAOYSA-N
COMPOUNDCLASS: SM
RETENTIONTIME: 
COMMENT: 
Num Peaks: 5
719.534478	100
659.513348	999
449.314983	10
168.043118	200
78.959054	50

NAME: SM 18:1;O2/20:4
PRECURSORMZ: 795.5658
PRECURSORTYPE: [M+HCOO]-
IONMODE: Negative
FORMULA: C43H79N2O6P
SMILES: O=C(NC(COP(=O)([O-])OCC[N+](C)(C)C)C(O)C=CCCCCCCCCCCCCC)CCCCCCC=CCC=CCC=CCC=CCC
INCHIKEY: SNVZBJBLBAYUCY-UHFFFAOYSA-N
COMPOUNDCLASS: SM
RETENTIONTIME: 
COMMENT: 
Num Peaks: 5
795.565778	100
735.544648	999
449.314983	10
168.043118	200
78.959054	50

NAME: SM 14:0;O2/18:1
PRECURSORMZ: 733.5501
PRECURSORTYPE: [M+CH3COO]-
IONMODE: Negative
FORMULA: C37H75N2O6P
SMILES: O=C(NC(COP(=O)([O-])OCC[N+](C)(C)C)C(O)CCCCCCCCCCC)CCCCCCCC=CCCCCCCCC
INCHIKEY: QAYQKAURCXIWFW-UHFFFAOYSA-N
COMPOUNDCLASS: SM
RETENTIONTIME: 
COMMENT: 
Num Peaks: 5
733.550128	100
659.513348	999
395.268033	10
168.043118	200
78.959054	50

NAME: SM 14:0;O2/20:4
PRECURSORMZ: 755.5345
PRECURSORTYPE: [M+CH3COO]-
IONMODE: Negative
FORMULA: C39H73N2O6P
SMILES: O=C(NC(COP(=O)([O-])OCC[N+](C)(C)C)C(O)CCCCCCCCCCC)CCCCCCC=CCC=CCC=CCC=CCC
INCHIKEY: UNWPDDDERBPSDL-UHFFFAOYSA-N
COMPOUNDCLASS: SM
RETENTIONTIME: 
COMMENT: 
Num Peaks: 5
755.534478	100
681.497698	999
395.268033	10
168.043118	200
78.959054	50

NAME: SM 18:1;O2/14:0
PRECURSORMZ: 733.5501
PRECURSORTYPE: [M+CH3COO]-
IONMODE: Negative
FORMULA: C37H75N2O6P
SMILES: O=C(NC(COP(=O)([O-])OCC[N+](C)(C)C)C(O)C=CCCCCCCCCCCCCC)CCCCCCCCCCCCC
INCHIKEY: KYICBZWZQPCUMO-UHFFFAOYSA-N
COMPOUNDCLASS: SM
RETENTIONTIME: 
COMMENT: 
Num Peaks: 5
733.550128	100
659.513348	999
449.314983	10
168.043118	200
78.959054	50

NAME: SM 18:1;O2/20:4
PRECURSORMZ: 809.5814
PRECURSORTYPE: [M+CH3COO]-
IONMODE: Negative
FORMULA: C43H79N2O6P
SMILES: O=C(NC(COP(=O)([O-])OCC[N+](C)(C)C)C(O)C=CCCCCCCCCCCCCC)CCCCCCC=CCC=CCC=CCC=CCC
INCHIKEY: SNVZBJBLBAYUCY-UHFFFAOYSA-N
COMPOUNDCLASS: SM
RETENTIONTIME: 
COMMENT: 
Num Peaks: 5
809.581428	100
735.544648	999
449.314983	10
168.043118	200
78.959054	50

NAME: SM 14:0;O2/18:1
PRECURSORMZ: 735.5294
PRECURSORTYPE: [M+HCO3]-
IONMODE: Negative
FORMULA: C37H75N2O6P
SMILES: O=C(NC(COP(=O)([O-])OCC[N+](C)(C)C)C(O)CCCCCCCCCCC)CCCCCCCC=CCCCCCCCC
INCHIKEY: QAYQKAURCXIWFW-UHFFFAOYSA-N
COMPOUNDCLASS: SM
RETENTIONTIME: 
COMMENT: 
Num Peaks: 6
735.529392	50
673.528998	150
614.455499	600
588.439849	999
430.272784	300
182.058768	200

NAME: SM 14:0;O2/20:4
PRECURSORMZ: 757.5137
PRECURSORTYPE: [M+HCO3]-
IONMODE: Negative
FORMULA: C39H73N2O6P
SMILES: O=C(NC(COP(=O)([O-])OCC[N+](C)(C)C)C(O)CCCCCCCCCCC)CCCCCCC=CCC=CCC=CCC=CCC
INCHIKEY: UNWPDDDERBPSDL-UHFFFAOYSA-N
COMPOUNDCLASS: SM
RETENTIONTIME: 
COMMENT: 
Num Peaks: 6
757.513742	50
695.513348	150
636.439849	600
610.424199	999
452.257134	300
182.058768	200

NAME: SM 18:1;O2/14:0
PRECURSORMZ: 735.5294
PRECURSORTYPE: [M+HCO3]-
IONMODE: Negative
FORMULA: C37H75N2O6P
SMILES: O=C(NC(COP(=O)([O-])OCC[N+](C)(C)C)C(O)C=CCCCCCCCCCCCCC)CCCCCCCCCCCCC
INCHIKEY: KYICBZWZQPCUMO-UHFFFAOYSA-N
COMPOUNDCLASS: SM
RETENTIONTIME: 
COMMENT: 
Num Peaks: 6
735.529392	50
673.528998	150
614.455499	600
588.439849	999
376.225833	300
182.058768	200

NAME: SM 18:1;O2/20:4
PRECURSORMZ: 811.5607
PRECURSORTYPE: [M+HCO3]-
IONMODE: Negative
FORMULA: C43H79N2O6P
SMILES: O=C(NC(COP(=O)([O-])OCC[N+](C)(C)C)C(O)C=CCCCCCCCCCCCCC)CCCCCCC=CCC=CCC=CCC=CCC
INCHIKEY: SNVZBJBLBAYUCY-UHFFFAOYSA-N
COMPOUNDCLASS: SM
RETENTIONTIME: 
COMMENT: 
Num Peaks: 6
811.560692	50
749.560298	150
690.486799	600
664.471149	999
452.257134	300
182.058768	200

NAME: SM 14:0;O2/18:1
PRECURSORMZ: 675.5436
PRECURSORTYPE: [M+H]+
IONMODE: Positive
FORMULA: C37H75N2O6P
SMILES: O=C(NC(COP(=O)([O-])OCC[N+](C)(C)C)C(O)CCCCCCCCCCC)CCCCCCCC=CCCCCCCCC
INCHIKEY: QAYQKAURCXIWFW-UHFFFAOYSA-N
COMPOUNDCLASS: SM
RETENTIONTIME: 
COMMENT: 
Num Peaks: 4
675.543551	200
657.532986	10
210.221626	5
184.073321	999

NAME: SM 14:0;O2/20:4
PRECURSORMZ: 697.5279
PRECURSORTYPE: [M+H]+
IONMODE: Positive
FORMULA: C39H73N2O6P
SMILES: O=C(NC(COP(=O)([O-])OCC[N+](C)(C)C)C(O)CCCCCCCCCCC)CCCCCCC=CCC=CCC=CCC=CCC
INCHIKEY: UNWPDDDERBPSDL-UHFFFAOYSA-N
COMPOUNDCLASS: SM
RETENTIONTIME: 
COMMENT: 
Num Peaks: 4
697.527901	200
679.517336	10
210.221626	5
184.073321	999

NAME: SM 18:1;O2/14:0
PRECURSORMZ: 675.5436
PRECURSORTYPE: [M+H]+
IONMODE: Positive
FORMULA: C37H75N2O6P
SMILES: O=C(NC(COP(=O)([O-])OCC[N+](C)(C)C)C(O)C=CCCCCCCCCCCCCC)CCCCCCCCCCCCC
INCHIKEY: KYICBZWZQPCUMO-UHFFFAOYSA-N
COMPOUNDCLASS: SM
RETENTIONTIME: 
COMMENT: 
Num Peaks: 4
675.543551	200
657.532986	10
264.268576	5
184.073321	999

NAME: SM 18:1;O2/20:4
PRECURSORMZ: 751.5749
PRECURSORTYPE: [M+H]+
IONMODE: Positive
FORMULA: C43H79N2O6P
SMILES: O=C(NC(COP(=O)([O-])OCC[N+](C)(C)C)C(O)C=CCCCCCCCCCCCCC)CCCCCCC=CCC=CCC=CCC=CCC
INCHIKEY: SNVZBJBLBAYUCY-UHFFFAOYSA-N
COMPOUNDCLASS: SM
RETENTIONTIME: 
COMMENT: 
Num Peaks: 4
751.574851	200
733.564287	10
264.268576	5
184.073321	999

NAME: SM 28:0;O2
PRECURSORMZ: 643.4785
PRECURSORTYPE: [M+Na]+
IONMODE: Positive
FORMULA: C33H69N2O6P
SMILES: O=C(NC(COP(=O)([O-])OCC[N+](C)(C)C)C(O)CCCCCCCCCCC)CCCCCCCCCCCCC
INCHIKEY: OASVYBHTWRJVOS-UHFFFAOYSA-N
COMPOUNDCLASS: SM
RETENTIONTIME: 
COMMENT: 
Num Peaks: 4
643.478545	999
584.405046	800
460.412501	999
420.419992	200

NAME: SM 32:1;O2
PRECURSORMZ: 697.5255
PRECURSORTYPE: [M+Na]+
IONMODE: Positive
FORMULA: C37H75N2O6P
SMILES: O=C(NC(COP(=O)([O-])OCC[N+](C)(C)C)C(O)CCCCCCCCCCC)CCCCCCCC=CCCCCCCCC
INCHIKEY: QAYQKAURCXIWFW-UHFFFAOYSA-N
COMPOUNDCLASS: SM
RETENTIONTIME: 
COMMENT: 
Num Peaks: 4
697.525495	999
638.451996	800
514.459451	999
474.466942	200

NAME: SM 34:4;O2
PRECURSORMZ: 719.5098
PRECURSORTYPE: [M+Na]+
IONMODE: Positive
FORMULA: C39H73N2O6P
SMILES: O=C(NC(COP(=O)([O-])OCC[N+](C)(C)C)C(O)CCCCCCCCCCC)CCCCCCC=CCC=CCC=CCC=CCC
INCHIKEY: UNWPDDDERBPSDL-UHFFFAOYSA-N
COMPOUNDCLASS: SM
RETENTIONTIME: 
COMMENT: 
Num Peaks: 4
719.509845	999
660.436346	800
536.443801	999
496.451292	200

NAME: SM 36:2;O2
PRECURSORMZ: 751.5724
PRECURSORTYPE: [M+Na]+
IONMODE: Positive
FORMULA: C41H81N2O6P
SMILES: O=C(NC(COP(=O)([O-])OCC[N+](C)(C)C)C(O)C=CCCCCCCCCCCCCC)CCCCCCCC=CCCCCCCCC
INCHIKEY: NBEADXWAAWCCDG-UHFFFAOYSA-N
COMPOUNDCLASS: SM
RETENTIONTIME: 
COMMENT: 
Num Peaks: 4
751.572446	999
692.498946	800
568.506401	999
528.513892	200

NAME: SM 38:5;O2
PRECURSORMZ: 773.5568
PRECURSORTYPE: [M+Na]+
IONMODE: Positive
FORMULA: C43H79N2O6P
SMILES: O=C(NC(COP(=O)([O-])OCC[N+](C)(C)C)C(O)C=CCCCCCCCCCCCCC)CCCCCCC=CCC=CCC=CCC=CCC
INCHIKEY: SNVZBJBLBAYUCY-UHFFFAOYSA-N
COMPOUNDCLASS: SM
RETENTIONTIME: 
COMMENT: 
Num Peaks: 4
773.556796	999
714.483296	800
590.490751	999
550.498242	200

