NAME: ADGGA 14:0_16:0_18:1
PRECURSORMZ: 979.7455
PRECURSORTYPE: [M-H]-
IONMODE: Negative
FORMULA: C57H104O12
SMILES: O=C(OCC(OC(=O)CCCCCCCCCCCCCCC)COC1OC(C(=O)O)C(O)C(O)C1OC(=O)CCCCCCCCCCCCC)CCCCCCCC=CCCCCCCCC
INCHIKEY: ZOVLACZXFZGZMQ-UHFFFAOYSA-N
COMPOUNDCLASS: ADGGA
RETENTIONTIME: 
COMMENT: 
Num Peaks: 4
979.745502	999
281.248604	300
255.232954	300
227.201654	300

NAME: ADGGA 20:4_16:0_18:1
PRECURSORMZ: 1055.7768
PRECURSORTYPE: [M-H]-
IONMODE: Negative
FORMULA: C63H108O12
SMILES: O=C(OCC(OC(=O)CCCCCCCCCCCCCCC)COC1OC(C(=O)O)C(O)C(O)C1OC(=O)CCCCCCC=CCC=CCC=CCC=CCC)CCCCCCCC=CCCCCCCCC
INCHIKEY: JGIMGIKZTABYKM-UHFFFAOYSA-N
COMPOUNDCLASS: ADGGA
RETENTIONTIME: 
COMMENT: 
Num Peaks: 4
1055.776802	999
303.232954	300
281.248604	300
255.232954	300

NAME: ADGGA (O-14:0)16:0_18:1
PRECURSORMZ: 998.7866
PRECURSORTYPE: [M+NH4]+
IONMODE: Positive
FORMULA: C57H104O12
SMILES: O=C(OCC(OC(=O)CCCCCCCCCCCCCCC)COC1OC(C(=O)O)C(O)C(O)C1OC(=O)CCCCCCCCCCCCC)CCCCCCCC=CCCCCCCCC
INCHIKEY: ZOVLACZXFZGZMQ-UHFFFAOYSA-N
COMPOUNDCLASS: ADGGA
RETENTIONTIME: 
COMMENT: 
Num Peaks: 6
998.786604	300
577.519037	100
387.23773	999
339.289371	300
313.273721	300
211.205642	300

NAME: ADGGA (O-20:4)16:0_18:1
PRECURSORMZ: 1074.8179
PRECURSORTYPE: [M+NH4]+
IONMODE: Positive
FORMULA: C63H108O12
SMILES: O=C(OCC(OC(=O)CCCCCCCCCCCCCCC)COC1OC(C(=O)O)C(O)C(O)C1OC(=O)CCCCCCC=CCC=CCC=CCC=CCC)CCCCCCCC=CCCCCCCCC
INCHIKEY: JGIMGIKZTABYKM-UHFFFAOYSA-N
COMPOUNDCLASS: ADGGA
RETENTIONTIME: 
COMMENT: 
Num Peaks: 6
1074.817904	300
577.519037	100
463.26903	999
339.289371	300
313.273721	300
287.236942	300

NAME: CL 12:0_14:0_16:1_18:1
PRECURSORMZ: 645.4319
PRECURSORTYPE: [M-2H]2-
IONMODE: Negative
FORMULA: C69H130O17P2
SMILES: O=C(OCC(OC(=O)CCCCCCCC=CCCCCCC)COP(=O)(O)OCC(O)COP(=O)(O)OCC(OC(=O)CCCCCCCCCCC)COC(=O)CCCCCCCCCCCCC)CCCCCCCC=CCCCCCCCC
INCHIKEY: XVQRKDUVBIHDPB-UHFFFAOYSA-N
COMPOUNDCLASS: CL
RETENTIONTIME: 
COMMENT: 
Num Peaks: 10
645.431887	500
417.241149	300
389.209849	300
363.194199	300
335.162899	300
281.248604	999
253.217304	999
227.201654	999
199.170354	999
152.995834	500

NAME: CL 12:0_14:0_16:1_18:1
PRECURSORMZ: 1291.871
PRECURSORTYPE: [M-H]-
IONMODE: Negative
FORMULA: C69H130O17P2
SMILES: O=C(OCC(OC(=O)CCCCCCCC=CCCCCCC)COP(=O)(O)OCC(O)COP(=O)(O)OCC(OC(=O)CCCCCCCCCCC)COC(=O)CCCCCCCCCCCCC)CCCCCCCC=CCCCCCCCC
INCHIKEY: XVQRKDUVBIHDPB-UHFFFAOYSA-N
COMPOUNDCLASS: CL
RETENTIONTIME: 
COMMENT: 
Num Peaks: 12
1291.87105	999
671.465729	500
563.371829	500
417.241149	700
389.209849	700
363.194199	700
335.162899	700
281.248604	500
253.217304	500
227.201654	500
199.170354	500
152.995834	300

NAME: CL 26:0_34:2
PRECURSORMZ: 1310.9122
PRECURSORTYPE: [M+NH4]+
IONMODE: Positive
FORMULA: C69H130O17P2
SMILES: O=C(OCC(OC(=O)CCCCCCCC=CCCCCCC)COP(=O)(O)OCC(O)COP(=O)(O)OCC(OC(=O)CCCCCCCCCCC)COC(=O)CCCCCCCCCCCCC)CCCCCCCC=CCCCCCCCC
INCHIKEY: XVQRKDUVBIHDPB-UHFFFAOYSA-N
COMPOUNDCLASS: CL
RETENTIONTIME: 
COMMENT: 
Num Peaks: 4
1310.912152	50
1293.885602	300
575.503387	999
467.409487	999

NAME: DGCC 16:0_18:1
PRECURSORMZ: 754.6191450357
PRECURSORTYPE: [M+H]+
IONMODE: Positive
FORMULA: C44H83NO8
SMILES: O=C(OCC(OC(=O)CCCCCCCC=CCCCCCCCC)COC(OCC[N+](C)(C)C)C(=O)[O-])CCCCCCCCCCCCCCC
INCHIKEY: PDTNQRNURMVYAJ-UHFFFAOYSA-N
COMPOUNDCLASS: DGCC
RETENTIONTIME: 
COMMENT: 
Num Peaks: 7
754.619145	999
516.389479	50
498.378915	50
490.373829	50
472.363265	50
132.101905	100
104.10699	200

NAME: DGDG 16:0_18:1
PRECURSORMZ: 963.626175032
PRECURSORTYPE: [M+HCOO]-
IONMODE: Negative
FORMULA: C49H90O15
SMILES: O=C(OCC(OC(=O)CCCCCCCC=CCCCCCCCC)COC1OC(COC2OC(CO)C(O)C(O)C2O)C(O)C(O)C1O)CCCCCCCCCCCCCCC
INCHIKEY: JRCZTCGPEBCBPF-UHFFFAOYSA-N
COMPOUNDCLASS: DGDG
RETENTIONTIME: 
COMMENT: 
Num Peaks: 11
963.626175	100
917.620696	500
679.39103	300
661.380465	300
653.37538	300
635.364815	300
415.145715	200
397.13515	999
379.124585	500
281.248604	600
255.232954	600

NAME: DGDG 16:0_18:1
PRECURSORMZ: 977.641825097
PRECURSORTYPE: [M+CH3COO]-
IONMODE: Negative
FORMULA: C49H90O15
SMILES: O=C(OCC(OC(=O)CCCCCCCC=CCCCCCCCC)COC1OC(COC2OC(CO)C(O)C(O)C2O)C(O)C(O)C1O)CCCCCCCCCCCCCCC
INCHIKEY: JRCZTCGPEBCBPF-UHFFFAOYSA-N
COMPOUNDCLASS: DGDG
RETENTIONTIME: 
COMMENT: 
Num Peaks: 11
977.641825	100
917.620696	500
679.39103	300
661.380465	300
653.37538	300
635.364815	300
415.145715	200
397.13515	999
379.124585	500
281.248604	600
255.232954	600

NAME: DGDG 16:0_18:1
PRECURSORMZ: 936.661797733
PRECURSORTYPE: [M+NH4]+
IONMODE: Positive
FORMULA: C49H90O15
SMILES: O=C(OCC(OC(=O)CCCCCCCC=CCCCCCCCC)COC1OC(COC2OC(CO)C(O)C(O)C2O)C(O)C(O)C1O)CCCCCCCCCCCCCCC
INCHIKEY: JRCZTCGPEBCBPF-UHFFFAOYSA-N
COMPOUNDCLASS: DGDG
RETENTIONTIME: 
COMMENT: 
Num Peaks: 5
936.661798	100
595.529602	999
577.519037	999
339.289371	999
313.273721	999

NAME: DGGA 16:0_18:1
PRECURSORMZ: 769.5471368963
PRECURSORTYPE: [M-H]-
IONMODE: Negative
FORMULA: C43H78O11
SMILES: O=C(OCC(OC(=O)CCCCCCCCCCCCCCC)COC1OC(C(=O)O)C(O)C(O)C1O)CCCCCCCC=CCCCCCCCC
INCHIKEY: QMWQXGKTSXKXGC-UHFFFAOYSA-N
COMPOUNDCLASS: DGGA
RETENTIONTIME: 
COMMENT: 
Num Peaks: 5
769.547137	999
531.317471	50
505.301821	50
281.248604	500
255.232954	500

NAME: DGGA 16:0_18:1
PRECURSORMZ: 788.588238869
PRECURSORTYPE: [M+NH4]+
IONMODE: Positive
FORMULA: C43H78O11
SMILES: O=C(OCC(OC(=O)CCCCCCCCCCCCCCC)COC1OC(C(=O)O)C(O)C(O)C1O)CCCCCCCC=CCCCCCCCC
INCHIKEY: QMWQXGKTSXKXGC-UHFFFAOYSA-N
COMPOUNDCLASS: DGGA
RETENTIONTIME: 
COMMENT: 
Num Peaks: 4
788.588239	100
577.519037	500
339.289371	999
313.273721	999

NAME: DGMG 18:1
PRECURSORMZ: 725.396509452
PRECURSORTYPE: [M+HCOO]-
IONMODE: Negative
FORMULA: C33H60O14
SMILES: O=C(OCC(O)COC1OC(COC2OC(CO)C(O)C(O)C2O)C(O)C(O)C1O)CCCCCCCC=CCCCCCCCC
INCHIKEY: VROZOADUAPWACT-UHFFFAOYSA-N
COMPOUNDCLASS: DGMG
RETENTIONTIME: 
COMMENT: 
Num Peaks: 5
725.396509	150
679.39103	150
415.145715	200
397.13515	800
281.248604	999

NAME: DGMG 18:1
PRECURSORMZ: 739.412159517
PRECURSORTYPE: [M+CH3COO]-
IONMODE: Negative
FORMULA: C33H60O14
SMILES: O=C(OCC(O)COC1OC(COC2OC(CO)C(O)C(O)C2O)C(O)C(O)C1O)CCCCCCCC=CCCCCCCCC
INCHIKEY: VROZOADUAPWACT-UHFFFAOYSA-N
COMPOUNDCLASS: DGMG
RETENTIONTIME: 
COMMENT: 
Num Peaks: 5
739.41216	150
679.39103	150
415.145715	200
397.13515	800
281.248604	999

NAME: DGMG 18:1
PRECURSORMZ: 698.432132153
PRECURSORTYPE: [M+NH4]+
IONMODE: Positive
FORMULA: C33H60O14
SMILES: O=C(OCC(O)COC1OC(COC2OC(CO)C(O)C(O)C2O)C(O)C(O)C1O)CCCCCCCC=CCCCCCCCC
INCHIKEY: VROZOADUAPWACT-UHFFFAOYSA-N
COMPOUNDCLASS: DGMG
RETENTIONTIME: 
COMMENT: 
Num Peaks: 5
698.432132	100
357.299936	500
339.289371	999
265.252592	700
247.242027	500

NAME: DGTS 16:0_18:1
PRECURSORMZ: 782.615156848
PRECURSORTYPE: [M+HCOO]-
IONMODE: Negative
FORMULA: C44H83NO7
SMILES: O=C(OCC(OC(=O)CCCCCCCC=CCCCCCCCC)COCCC(C(=O)[O-])[N+](C)(C)C)CCCCCCCCCCCCCCC
INCHIKEY: LMOAWGSXADBGPG-UHFFFAOYSA-N
COMPOUNDCLASS: DGTS
RETENTIONTIME: 
COMMENT: 
Num Peaks: 8
782.615157	10
723.601853	100
695.570552	999
677.559988	10
457.340887	50
431.325237	50
281.248604	50
255.232954	50

NAME: DGTS 16:0_18:1
PRECURSORMZ: 796.630806913
PRECURSORTYPE: [M+CH3COO]-
IONMODE: Negative
FORMULA: C44H83NO7
SMILES: O=C(OCC(OC(=O)CCCCCCCC=CCCCCCCCC)COCCC(C(=O)[O-])[N+](C)(C)C)CCCCCCCCCCCCCCC
INCHIKEY: LMOAWGSXADBGPG-UHFFFAOYSA-N
COMPOUNDCLASS: DGTS
RETENTIONTIME: 
COMMENT: 
Num Peaks: 8
796.630807	10
723.601853	100
695.570552	999
677.559988	10
457.340887	50
431.325237	50
281.248604	50
255.232954	50

NAME: DGTS 16:0_18:1
PRECURSORMZ: 738.6242304157
PRECURSORTYPE: [M+H]+
IONMODE: Positive
FORMULA: C44H83NO7
SMILES: O=C(OCC(OC(=O)CCCCCCCC=CCCCCCCCC)COCCC(C(=O)[O-])[N+](C)(C)C)CCCCCCCCCCCCCCC
INCHIKEY: LMOAWGSXADBGPG-UHFFFAOYSA-N
COMPOUNDCLASS: DGTS
RETENTIONTIME: 
COMMENT: 
Num Peaks: 7
738.62423	999
500.394565	300
482.384	300
474.378915	300
456.36835	300
236.149249	400
144.101905	50

NAME: DGTS 16:0_18:1
PRECURSORMZ: 760.606174696
PRECURSORTYPE: [M+Na]+
IONMODE: Positive
FORMULA: C44H83NO7
SMILES: O=C(OCC(OC(=O)CCCCCCCC=CCCCCCCCC)COCCC(C(=O)[O-])[N+](C)(C)C)CCCCCCCCCCCCCCC
INCHIKEY: LMOAWGSXADBGPG-UHFFFAOYSA-N
COMPOUNDCLASS: DGTS
RETENTIONTIME: 
COMMENT: 
Num Peaks: 9
760.606175	700
738.62423	50
701.532675	100
686.569395	200
673.537761	999
417.297531	100
391.28188	100
236.149249	50
144.101905	10

NAME: DG_d5 36:2
PRECURSORMZ: 648.5586
PRECURSORTYPE: [M+Na]+
IONMODE: Positive
FORMULA: C39H67D5O5
SMILES: C([2H])([2H])(OC(CCCCCCC/C=C\CCCCCCCC)=O)C(OC(CCCCCCC/C=C\CCCCCCCC)=O)([2H])C(O)([2H])[2H]
INCHIKEY: AFSHUZFNMVJNKX-XZPPQYRVSA-N
COMPOUNDCLASS: DG_d5
RETENTIONTIME: 
COMMENT: 
Num Peaks: 1
648.55858	999

NAME: DG_d5 34:1
PRECURSORMZ: 622.5429
PRECURSORTYPE: [M+Na]+
IONMODE: Positive
FORMULA: C37H65D5O5
SMILES: C([2H])([2H])(OC(CCCCCCCCCCCCCCC)=O)C(OC(CCCCCCC/C=C\CCCCCCCC)=O)([2H])C(O)([2H])[2H]
INCHIKEY: YEJYLHKQOBOSCP-BWCYHSMVSA-N
COMPOUNDCLASS: DG_d5
RETENTIONTIME: 
COMMENT: 
Num Peaks: 1
622.54293	999

NAME: DG_d5 38:5
PRECURSORMZ: 670.5429
PRECURSORTYPE: [M+Na]+
IONMODE: Positive
FORMULA: C41H65D5O5
SMILES: C([2H])([2H])(OC(CCCCCCC/C=C\CCCCCCCC)=O)C(OC(CCCCCC/C=C\C/C=C\C/C=C\C/C=C\CC)=O)([2H])C(O)([2H])[2H]
INCHIKEY: CDIDDLXSXXDECX-ROEILRNBSA-N
COMPOUNDCLASS: DG_d5
RETENTIONTIME: 
COMMENT: 
Num Peaks: 1
670.54293	999

NAME: DG_d5 32:0
PRECURSORMZ: 596.5273
PRECURSORTYPE: [M+Na]+
IONMODE: Positive
FORMULA: C35H63D5O5
SMILES: C([2H])([2H])(OC(CCCCCCCCCCCCCCC)=O)C(OC(CCCCCCCCCCCCCCC)=O)([2H])C(O)([2H])[2H]
INCHIKEY: JEJLGIQLPYYGEE-YYRBTATQSA-N
COMPOUNDCLASS: DG_d5
RETENTIONTIME: 
COMMENT: 
Num Peaks: 1
596.52728	999

NAME: DG_d5 36:4
PRECURSORMZ: 644.5273
PRECURSORTYPE: [M+Na]+
IONMODE: Positive
FORMULA: C39H63D5O5
SMILES: C([2H])([2H])(OC(CCCCCCCCCCCCCCC)=O)C(OC(CCCCCC/C=C\C/C=C\C/C=C\C/C=C\CC)=O)([2H])C(O)([2H])[2H]
INCHIKEY: GYMMHHODMBOFGD-SNWGKLADSA-N
COMPOUNDCLASS: DG_d5
RETENTIONTIME: 
COMMENT: 
Num Peaks: 1
644.52728	999

NAME: DG_d5 40:8
PRECURSORMZ: 692.5273
PRECURSORTYPE: [M+Na]+
IONMODE: Positive
FORMULA: C43H63D5O5
SMILES: C([2H])([2H])(OC(CCCCCC/C=C\C/C=C\C/C=C\C/C=C\CC)=O)C(OC(CCCCCC/C=C\C/C=C\C/C=C\C/C=C\CC)=O)([2H])C(O)([2H])[2H]
INCHIKEY: XZUKUQGHWPETKI-DSWSRLAASA-N
COMPOUNDCLASS: DG_d5
RETENTIONTIME: 
COMMENT: 
Num Peaks: 1
692.52728	999

NAME: DG_d5 16:0_18:1
PRECURSORMZ: 617.5875
PRECURSORTYPE: [M+NH4]+
IONMODE: Positive
FORMULA: C37H65D5O5
SMILES: C([2H])([2H])(OC(CCCCCCCCCCCCCCC)=O)C(OC(CCCCCCC/C=C\CCCCCCCC)=O)([2H])C(O)([2H])[2H]
INCHIKEY: YEJYLHKQOBOSCP-BWCYHSMVSA-N
COMPOUNDCLASS: DG_d5
RETENTIONTIME: 
COMMENT: 
Num Peaks: 5
617.587535	1
600.560985	50
582.550421	400
344.320755	999
318.305105	999

NAME: DG_d5 18:1_20:4
PRECURSORMZ: 665.5875
PRECURSORTYPE: [M+NH4]+
IONMODE: Positive
FORMULA: C41H65D5O5
SMILES: C([2H])([2H])(OC(CCCCCCC/C=C\CCCCCCCC)=O)C(OC(CCCCCC/C=C\C/C=C\C/C=C\C/C=C\CC)=O)([2H])C(O)([2H])[2H]
INCHIKEY: CDIDDLXSXXDECX-ROEILRNBSA-N
COMPOUNDCLASS: DG_d5
RETENTIONTIME: 
COMMENT: 
Num Peaks: 5
665.587535	1
648.560985	50
630.550421	400
366.305105	999
344.320755	999

NAME: DG_d5 16:0_20:4
PRECURSORMZ: 639.5719
PRECURSORTYPE: [M+NH4]+
IONMODE: Positive
FORMULA: C39H63D5O5
SMILES: C([2H])([2H])(OC(CCCCCCCCCCCCCCC)=O)C(OC(CCCCCC/C=C\C/C=C\C/C=C\C/C=C\CC)=O)([2H])C(O)([2H])[2H]
INCHIKEY: GYMMHHODMBOFGD-SNWGKLADSA-N
COMPOUNDCLASS: DG_d5
RETENTIONTIME: 
COMMENT: 
Num Peaks: 5
639.571885	1
622.545335	50
604.534771	400
366.305105	999
318.305105	999

NAME: DG 36:2
PRECURSORMZ: 643.527196104
PRECURSORTYPE: [M+Na]+
IONMODE: Positive
FORMULA: C39H72O5
SMILES: O=C(OCC(OC(=O)CCCCCCCC=CCCCCCCCC)CO)CCCCCCCC=CCCCCCCCC
INCHIKEY: AFSHUZFNMVJNKX-UHFFFAOYSA-N
COMPOUNDCLASS: DG
RETENTIONTIME: 
COMMENT: 
Num Peaks: 1
643.527196	999

NAME: DG 34:1
PRECURSORMZ: 617.51154604
PRECURSORTYPE: [M+Na]+
IONMODE: Positive
FORMULA: C37H70O5
SMILES: O=C(OCC(OC(=O)CCCCCCCC=CCCCCCCCC)CO)CCCCCCCCCCCCCCC
INCHIKEY: YEJYLHKQOBOSCP-UHFFFAOYSA-N
COMPOUNDCLASS: DG
RETENTIONTIME: 
COMMENT: 
Num Peaks: 1
617.511546	999

NAME: DG 32:0
PRECURSORMZ: 591.495895976
PRECURSORTYPE: [M+Na]+
IONMODE: Positive
FORMULA: C35H68O5
SMILES: O=C(OCC(OC(=O)CCCCCCCCCCCCCCC)CO)CCCCCCCCCCCCCCC
INCHIKEY: JEJLGIQLPYYGEE-UHFFFAOYSA-N
COMPOUNDCLASS: DG
RETENTIONTIME: 
COMMENT: 
Num Peaks: 1
591.495896	999

NAME: DG 16:0_18:1
PRECURSORMZ: 612.556150893
PRECURSORTYPE: [M+NH4]+
IONMODE: Positive
FORMULA: C37H70O5
SMILES: O=C(OCC(OC(=O)CCCCCCCC=CCCCCCCCC)CO)CCCCCCCCCCCCCCC
INCHIKEY: YEJYLHKQOBOSCP-UHFFFAOYSA-N
COMPOUNDCLASS: DG
RETENTIONTIME: 
COMMENT: 
Num Peaks: 5
612.556151	1
595.529602	50
577.519037	400
339.289371	999
313.273721	999

NAME: DLCL 16:0_18:1
PRECURSORMZ: 901.5212688283
PRECURSORTYPE: [M-H]-
IONMODE: Negative
FORMULA: C43H84O15P2
SMILES: O=C(OCC(O)COP(=O)(O)OCC(O)COP(=O)(O)OCC(O)COC(=O)CCCCCCCCCCCCCCC)CCCCCCCC=CCCCCCCCC
INCHIKEY: XYIGCLORAXDFML-UHFFFAOYSA-N
COMPOUNDCLASS: DLCL
RETENTIONTIME: 
COMMENT: 
Num Peaks: 6
901.521269	999
435.251714	250
409.236064	250
281.248604	50
255.232954	50
152.995834	500

NAME: DGDG O-18:1_16:0
PRECURSORMZ: 949.6469
PRECURSORTYPE: [M+HCOO]-
IONMODE: Negative
FORMULA: C49H92O14
SMILES: O=C(OC(COCCCCCCCCC=CCCCCCCCC)COC1OC(COC2OC(CO)C(O)C(O)C2O)C(O)C(O)C1O)CCCCCCCCCCCCCCC
INCHIKEY: UWFZBCOPIAHGIG-UHFFFAOYSA-N
COMPOUNDCLASS: EtherDGDG
RETENTIONTIME: 
COMMENT: 
Num Peaks: 5
949.64691	100
903.641431	500
665.411766	300
647.401201	300
255.232954	600

NAME: DGDG O-16:0_18:1
PRECURSORMZ: 949.6469
PRECURSORTYPE: [M+HCOO]-
IONMODE: Negative
FORMULA: C49H92O14
SMILES: O=C(OC(COCCCCCCCCCCCCCCCC)COC1OC(COC2OC(CO)C(O)C(O)C2O)C(O)C(O)C1O)CCCCCCCC=CCCCCCCCC
INCHIKEY: ZNRXYVMBDZMLGK-UHFFFAOYSA-N
COMPOUNDCLASS: EtherDGDG
RETENTIONTIME: 
COMMENT: 
Num Peaks: 5
949.64691	100
903.641431	500
639.396116	300
621.385551	300
281.248604	600

NAME: DGDG O-18:1_16:0
PRECURSORMZ: 963.6626
PRECURSORTYPE: [M+CH3COO]-
IONMODE: Negative
FORMULA: C49H92O14
SMILES: O=C(OC(COCCCCCCCCC=CCCCCCCCC)COC1OC(COC2OC(CO)C(O)C(O)C2O)C(O)C(O)C1O)CCCCCCCCCCCCCCC
INCHIKEY: UWFZBCOPIAHGIG-UHFFFAOYSA-N
COMPOUNDCLASS: EtherDGDG
RETENTIONTIME: 
COMMENT: 
Num Peaks: 5
963.662561	100
903.641431	500
665.411766	300
647.401201	300
255.232954	600

NAME: DGDG O-16:0_18:1
PRECURSORMZ: 963.6626
PRECURSORTYPE: [M+CH3COO]-
IONMODE: Negative
FORMULA: C49H92O14
SMILES: O=C(OC(COCCCCCCCCCCCCCCCC)COC1OC(COC2OC(CO)C(O)C(O)C2O)C(O)C(O)C1O)CCCCCCCC=CCCCCCCCC
INCHIKEY: ZNRXYVMBDZMLGK-UHFFFAOYSA-N
COMPOUNDCLASS: EtherDGDG
RETENTIONTIME: 
COMMENT: 
Num Peaks: 5
963.662561	100
903.641431	500
639.396116	300
621.385551	300
281.248604	600

NAME: DGDG O-18:1_16:0
PRECURSORMZ: 927.6379
PRECURSORTYPE: [M+Na]+
IONMODE: Positive
FORMULA: C49H92O14
SMILES: O=C(OC(COCCCCCCCCC=CCCCCCCCC)COC1OC(COC2OC(CO)C(O)C(O)C2O)C(O)C(O)C1O)CCCCCCCCCCCCCCC
INCHIKEY: UWFZBCOPIAHGIG-UHFFFAOYSA-N
COMPOUNDCLASS: EtherDGDG
RETENTIONTIME: 
COMMENT: 
Num Peaks: 3
927.637928	999
671.397698	150
509.344875	150

NAME: DGDG O-16:0_18:1
PRECURSORMZ: 927.6379
PRECURSORTYPE: [M+Na]+
IONMODE: Positive
FORMULA: C49H92O14
SMILES: O=C(OC(COCCCCCCCCCCCCCCCC)COC1OC(COC2OC(CO)C(O)C(O)C2O)C(O)C(O)C1O)CCCCCCCC=CCCCCCCCC
INCHIKEY: ZNRXYVMBDZMLGK-UHFFFAOYSA-N
COMPOUNDCLASS: EtherDGDG
RETENTIONTIME: 
COMMENT: 
Num Peaks: 3
927.637928	999
645.382048	150
483.329225	150

NAME: DGDG O-18:1_16:0
PRECURSORMZ: 922.6825
PRECURSORTYPE: [M+NH4]+
IONMODE: Positive
FORMULA: C49H92O14
SMILES: O=C(OC(COCCCCCCCCC=CCCCCCCCC)COC1OC(COC2OC(CO)C(O)C(O)C2O)C(O)C(O)C1O)CCCCCCCCCCCCCCC
INCHIKEY: UWFZBCOPIAHGIG-UHFFFAOYSA-N
COMPOUNDCLASS: EtherDGDG
RETENTIONTIME: 
COMMENT: 
Num Peaks: 4
922.682533	100
581.550337	999
563.539773	999
325.310107	999

NAME: DGDG O-16:0_18:1
PRECURSORMZ: 922.6825
PRECURSORTYPE: [M+NH4]+
IONMODE: Positive
FORMULA: C49H92O14
SMILES: O=C(OC(COCCCCCCCCCCCCCCCC)COC1OC(COC2OC(CO)C(O)C(O)C2O)C(O)C(O)C1O)CCCCCCCC=CCCCCCCCC
INCHIKEY: ZNRXYVMBDZMLGK-UHFFFAOYSA-N
COMPOUNDCLASS: EtherDGDG
RETENTIONTIME: 
COMMENT: 
Num Peaks: 4
922.682533	100
581.550337	999
563.539773	999
299.294457	999

NAME: DG O-18:1_16:0
PRECURSORMZ: 598.5769
PRECURSORTYPE: [M+NH4]+
IONMODE: Positive
FORMULA: C37H72O4
SMILES: O=C(OC(CO)COCCCCCCCCC=CCCCCCCCC)CCCCCCCCCCCCCCC
INCHIKEY: KRCAFDJIIDJILQ-UHFFFAOYSA-N
COMPOUNDCLASS: EtherDG
RETENTIONTIME: 
COMMENT: 
Num Peaks: 3
598.576886	1
563.539773	50
313.273721	999

NAME: DG O-16:0_18:1
PRECURSORMZ: 598.5769
PRECURSORTYPE: [M+NH4]+
IONMODE: Positive
FORMULA: C37H72O4
SMILES: O=C(OC(CO)COCCCCCCCCCCCCCCCC)CCCCCCCC=CCCCCCCCC
INCHIKEY: ZDRGKGZHXIWXJD-UHFFFAOYSA-N
COMPOUNDCLASS: EtherDG
RETENTIONTIME: 
COMMENT: 
Num Peaks: 3
598.576886	1
563.539773	50
339.289371	999

NAME: MGDG O-18:1_16:0
PRECURSORMZ: 787.5941
PRECURSORTYPE: [M+HCOO]-
IONMODE: Negative
FORMULA: C43H82O9
SMILES: O=C(OC(COCCCCCCCCC=CCCCCCCCC)COC1OC(CO)C(O)C(O)C1O)CCCCCCCCCCCCCCC
INCHIKEY: JVOGCNLXXXLAFT-UHFFFAOYSA-N
COMPOUNDCLASS: EtherMGDG
RETENTIONTIME: 
COMMENT: 
Num Peaks: 4
787.594087	1
741.588608	200
503.358942	50
255.232954	999

NAME: MGDG O-16:0_18:1
PRECURSORMZ: 787.5941
PRECURSORTYPE: [M+HCOO]-
IONMODE: Negative
FORMULA: C43H82O9
SMILES: O=C(OC(COCCCCCCCCCCCCCCCC)COC1OC(CO)C(O)C(O)C1O)CCCCCCCC=CCCCCCCCC
INCHIKEY: DYPHHCMHRAPUBW-UHFFFAOYSA-N
COMPOUNDCLASS: EtherMGDG
RETENTIONTIME: 
COMMENT: 
Num Peaks: 4
787.594087	1
741.588608	200
477.343292	50
281.248604	999

NAME: MGDG O-18:1_16:0
PRECURSORMZ: 801.6097
PRECURSORTYPE: [M+CH3COO]-
IONMODE: Negative
FORMULA: C43H82O9
SMILES: O=C(OC(COCCCCCCCCC=CCCCCCCCC)COC1OC(CO)C(O)C(O)C1O)CCCCCCCCCCCCCCC
INCHIKEY: JVOGCNLXXXLAFT-UHFFFAOYSA-N
COMPOUNDCLASS: EtherMGDG
RETENTIONTIME: 
COMMENT: 
Num Peaks: 4
801.609737	1
741.588608	200
503.358942	50
255.232954	999

NAME: MGDG O-16:0_18:1
PRECURSORMZ: 801.6097
PRECURSORTYPE: [M+CH3COO]-
IONMODE: Negative
FORMULA: C43H82O9
SMILES: O=C(OC(COCCCCCCCCCCCCCCCC)COC1OC(CO)C(O)C(O)C1O)CCCCCCCC=CCCCCCCCC
INCHIKEY: DYPHHCMHRAPUBW-UHFFFAOYSA-N
COMPOUNDCLASS: EtherMGDG
RETENTIONTIME: 
COMMENT: 
Num Peaks: 4
801.609737	1
741.588608	200
477.343292	50
281.248604	999

NAME: MGDG O-18:1_16:0
PRECURSORMZ: 765.5851
PRECURSORTYPE: [M+Na]+
IONMODE: Positive
FORMULA: C43H82O9
SMILES: O=C(OC(COCCCCCCCCC=CCCCCCCCC)COC1OC(CO)C(O)C(O)C1O)CCCCCCCCCCCCCCC
INCHIKEY: JVOGCNLXXXLAFT-UHFFFAOYSA-N
COMPOUNDCLASS: EtherMGDG
RETENTIONTIME: 
COMMENT: 
Num Peaks: 2
765.585105	999
509.344875	150

NAME: MGDG O-16:0_18:1
PRECURSORMZ: 765.5851
PRECURSORTYPE: [M+Na]+
IONMODE: Positive
FORMULA: C43H82O9
SMILES: O=C(OC(COCCCCCCCCCCCCCCCC)COC1OC(CO)C(O)C(O)C1O)CCCCCCCC=CCCCCCCCC
INCHIKEY: DYPHHCMHRAPUBW-UHFFFAOYSA-N
COMPOUNDCLASS: EtherMGDG
RETENTIONTIME: 
COMMENT: 
Num Peaks: 2
765.585105	999
483.329225	150

NAME: MGDG O-18:1_16:0
PRECURSORMZ: 760.6297
PRECURSORTYPE: [M+NH4]+
IONMODE: Positive
FORMULA: C43H82O9
SMILES: O=C(OC(COCCCCCCCCC=CCCCCCCCC)COC1OC(CO)C(O)C(O)C1O)CCCCCCCCCCCCCCC
INCHIKEY: JVOGCNLXXXLAFT-UHFFFAOYSA-N
COMPOUNDCLASS: EtherMGDG
RETENTIONTIME: 
COMMENT: 
Num Peaks: 3
760.62971	100
563.539773	600
313.273721	999

NAME: MGDG O-16:0_18:1
PRECURSORMZ: 760.6297
PRECURSORTYPE: [M+NH4]+
IONMODE: Positive
FORMULA: C43H82O9
SMILES: O=C(OC(COCCCCCCCCCCCCCCCC)COC1OC(CO)C(O)C(O)C1O)CCCCCCCC=CCCCCCCCC
INCHIKEY: DYPHHCMHRAPUBW-UHFFFAOYSA-N
COMPOUNDCLASS: EtherMGDG
RETENTIONTIME: 
COMMENT: 
Num Peaks: 3
760.62971	100
563.539773	600
339.289371	999

NAME: SMGDG O-18:1_16:0
PRECURSORMZ: 821.5454
PRECURSORTYPE: [M-H]-
IONMODE: Negative
FORMULA: C43H82O12S
SMILES: O=C(OC(COCCCCCCCCC=CCCCCCCCC)COC1OC(CO)C(O)C(OS(=O)(=O)O)C1O)CCCCCCCCCCCCCCC
INCHIKEY: JEYWBXCURAPUKL-UHFFFAOYSA-N
COMPOUNDCLASS: EtherSMGDG
RETENTIONTIME: 
COMMENT: 
Num Peaks: 4
821.545423	999
565.305192	5
241.002362	5
96.960103	5

NAME: SMGDG O-16:0_18:1
PRECURSORMZ: 821.5454
PRECURSORTYPE: [M-H]-
IONMODE: Negative
FORMULA: C43H82O12S
SMILES: O=C(OC(COCCCCCCCCCCCCCCCC)COC1OC(CO)C(O)C(OS(=O)(=O)O)C1O)CCCCCCCC=CCCCCCCCC
INCHIKEY: JWAXUCANRGWOFV-UHFFFAOYSA-N
COMPOUNDCLASS: EtherSMGDG
RETENTIONTIME: 
COMMENT: 
Num Peaks: 4
821.545423	999
539.289542	5
241.002362	5
96.960103	5

NAME: SMGDG O-18:1_16:0
PRECURSORMZ: 840.5865
PRECURSORTYPE: [M+NH4]+
IONMODE: Positive
FORMULA: C43H82O12S
SMILES: O=C(OC(COCCCCCCCCC=CCCCCCCCC)COC1OC(CO)C(O)C(OS(=O)(=O)O)C1O)CCCCCCCCCCCCCCC
INCHIKEY: JEYWBXCURAPUKL-UHFFFAOYSA-N
COMPOUNDCLASS: EtherSMGDG
RETENTIONTIME: 
COMMENT: 
Num Peaks: 6
840.586525	5
581.550337	100
563.539773	700
325.310107	50
313.273721	999
239.236942	50

NAME: SMGDG O-16:0_18:1
PRECURSORMZ: 840.5865
PRECURSORTYPE: [M+NH4]+
IONMODE: Positive
FORMULA: C43H82O12S
SMILES: O=C(OC(COCCCCCCCCCCCCCCCC)COC1OC(CO)C(O)C(OS(=O)(=O)O)C1O)CCCCCCCC=CCCCCCCCC
INCHIKEY: JWAXUCANRGWOFV-UHFFFAOYSA-N
COMPOUNDCLASS: EtherSMGDG
RETENTIONTIME: 
COMMENT: 
Num Peaks: 6
840.586525	5
581.550337	100
563.539773	700
339.289371	999
299.294457	50
265.252592	50

NAME: TG O-14:0_16:0_18:1
PRECURSORMZ: 813.7306
PRECURSORTYPE: [M+Na]+
IONMODE: Positive
FORMULA: C51H98O5
SMILES: O=C(OCC(OC(=O)CCCCCCCC=CCCCCCCCC)COCCCCCCCCCCCCCC)CCCCCCCCCCCCCCC
INCHIKEY: NUCMXUQXLRBGIN-UHFFFAOYSA-N
COMPOUNDCLASS: EtherTG
RETENTIONTIME: 
COMMENT: 
Num Peaks: 3
813.730647	999
557.490417	50
531.474767	50

NAME: TG O-20:4_16:0_18:1
PRECURSORMZ: 889.7619
PRECURSORTYPE: [M+Na]+
IONMODE: Positive
FORMULA: C57H102O5
SMILES: O=C(OCC(OC(=O)CCCCCCCC=CCCCCCCCC)COCCCCCCCC=CCC=CCC=CCC=CCC)CCCCCCCCCCCCCCC
INCHIKEY: HQDCUPGWWHEVHO-UHFFFAOYSA-N
COMPOUNDCLASS: EtherTG
RETENTIONTIME: 
COMMENT: 
Num Peaks: 3
889.761947	999
633.521717	50
607.506067	50

NAME: TG O-14:0_16:0_18:1
PRECURSORMZ: 808.7753
PRECURSORTYPE: [M+NH4]+
IONMODE: Positive
FORMULA: C51H98O5
SMILES: O=C(OCC(OC(=O)CCCCCCCC=CCCCCCCCC)COCCCCCCCCCCCCCC)CCCCCCCCCCCCCCC
INCHIKEY: NUCMXUQXLRBGIN-UHFFFAOYSA-N
COMPOUNDCLASS: EtherTG
RETENTIONTIME: 
COMMENT: 
Num Peaks: 5
808.775252	100
791.748703	50
577.519037	999
535.508472	999
509.492822	999

NAME: TG O-20:4_16:0_18:1
PRECURSORMZ: 884.8066
PRECURSORTYPE: [M+NH4]+
IONMODE: Positive
FORMULA: C57H102O5
SMILES: O=C(OCC(OC(=O)CCCCCCCC=CCCCCCCCC)COCCCCCCCC=CCC=CCC=CCC=CCC)CCCCCCCCCCCCCCC
INCHIKEY: HQDCUPGWWHEVHO-UHFFFAOYSA-N
COMPOUNDCLASS: EtherTG
RETENTIONTIME: 
COMMENT: 
Num Peaks: 5
884.806552	100
867.780003	50
611.539773	999
585.524122	999
577.519037	999

NAME: LDGCC 18:1
PRECURSORMZ: 516.3894794557
PRECURSORTYPE: [M+H]+
IONMODE: Positive
FORMULA: C28H53NO7
SMILES: O=C(OCC(O)COC(OCC[N+](C)(C)C)C(=O)[O-])CCCCCCCC=CCCCCCCCC
INCHIKEY: HNOAZCDJGXXOLH-UHFFFAOYSA-N
COMPOUNDCLASS: LDGCC
RETENTIONTIME: 
COMMENT: 
Num Peaks: 3
516.389479	999
132.101905	100
104.10699	200

NAME: LDGTS 18:1
PRECURSORMZ: 544.385491268
PRECURSORTYPE: [M+HCOO]-
IONMODE: Negative
FORMULA: C28H53NO6
SMILES: O=C(OCC(O)COCCC(C(=O)[O-])[N+](C)(C)C)CCCCCCCC=CCCCCCCCC
INCHIKEY: FTLDFSGPEPRILR-UHFFFAOYSA-N
COMPOUNDCLASS: LDGTS
RETENTIONTIME: 
COMMENT: 
Num Peaks: 3
544.385491	1
457.340887	999
281.248604	500

NAME: LDGTS 18:1
PRECURSORMZ: 558.401141333
PRECURSORTYPE: [M+CH3COO]-
IONMODE: Negative
FORMULA: C28H53NO6
SMILES: O=C(OCC(O)COCCC(C(=O)[O-])[N+](C)(C)C)CCCCCCCC=CCCCCCCCC
INCHIKEY: FTLDFSGPEPRILR-UHFFFAOYSA-N
COMPOUNDCLASS: LDGTS
RETENTIONTIME: 
COMMENT: 
Num Peaks: 3
558.401141	1
457.340887	999
281.248604	500

NAME: LDGTS 18:1
PRECURSORMZ: 500.3945648357
PRECURSORTYPE: [M+H]+
IONMODE: Positive
FORMULA: C28H53NO6
SMILES: O=C(OCC(O)COCCC(C(=O)[O-])[N+](C)(C)C)CCCCCCCC=CCCCCCCCC
INCHIKEY: FTLDFSGPEPRILR-UHFFFAOYSA-N
COMPOUNDCLASS: LDGTS
RETENTIONTIME: 
COMMENT: 
Num Peaks: 5
500.394565	400
482.384	200
236.149249	400
218.138685	50
144.101905	50

NAME: LDGTS 18:1
PRECURSORMZ: 522.376509116
PRECURSORTYPE: [M+Na]+
IONMODE: Positive
FORMULA: C28H53NO6
SMILES: O=C(OCC(O)COCCC(C(=O)[O-])[N+](C)(C)C)CCCCCCCC=CCCCCCCCC
INCHIKEY: FTLDFSGPEPRILR-UHFFFAOYSA-N
COMPOUNDCLASS: LDGTS
RETENTIONTIME: 
COMMENT: 
Num Peaks: 4
522.376509	300
435.308095	999
419.313181	200
236.149249	100

NAME: MGDG 16:0_18:1
PRECURSORMZ: 801.573351612
PRECURSORTYPE: [M+HCOO]-
IONMODE: Negative
FORMULA: C43H80O10
SMILES: O=C(OCC(OC(=O)CCCCCCCC=CCCCCCCCC)COC1OC(CO)C(O)C(O)C1O)CCCCCCCCCCCCCCC
INCHIKEY: GJPFUHJUTMNEJR-UHFFFAOYSA-N
COMPOUNDCLASS: MGDG
RETENTIONTIME: 
COMMENT: 
Num Peaks: 7
801.573352	300
755.567872	100
517.338207	50
491.322557	50
281.248604	999
255.232954	999
253.092891	50

NAME: MGDG 16:0_18:1
PRECURSORMZ: 815.589001677
PRECURSORTYPE: [M+CH3COO]-
IONMODE: Negative
FORMULA: C43H80O10
SMILES: O=C(OCC(OC(=O)CCCCCCCC=CCCCCCCCC)COC1OC(CO)C(O)C(O)C1O)CCCCCCCCCCCCCCC
INCHIKEY: GJPFUHJUTMNEJR-UHFFFAOYSA-N
COMPOUNDCLASS: MGDG
RETENTIONTIME: 
COMMENT: 
Num Peaks: 7
815.589002	300
755.567872	100
517.338207	50
491.322557	50
281.248604	999
255.232954	999
253.092891	50

NAME: MGDG 16:0_18:1
PRECURSORMZ: 774.608974313
PRECURSORTYPE: [M+NH4]+
IONMODE: Positive
FORMULA: C43H80O10
SMILES: O=C(OCC(OC(=O)CCCCCCCC=CCCCCCCCC)COC1OC(CO)C(O)C(O)C1O)CCCCCCCCCCCCCCC
INCHIKEY: GJPFUHJUTMNEJR-UHFFFAOYSA-N
COMPOUNDCLASS: MGDG
RETENTIONTIME: 
COMMENT: 
Num Peaks: 4
774.608974	100
577.519037	600
339.289371	999
313.273721	999

NAME: MGMG 18:1
PRECURSORMZ: 563.343686032
PRECURSORTYPE: [M+HCOO]-
IONMODE: Negative
FORMULA: C27H50O9
SMILES: O=C(OCC(O)COC1OC(CO)C(O)C(O)C1O)CCCCCCCC=CCCCCCCCC
INCHIKEY: NFWYGIXMHGBINM-UHFFFAOYSA-N
COMPOUNDCLASS: MGMG
RETENTIONTIME: 
COMMENT: 
Num Peaks: 2
563.343686	200
281.248604	999

NAME: MGMG 18:1
PRECURSORMZ: 577.359336097
PRECURSORTYPE: [M+CH3COO]-
IONMODE: Negative
FORMULA: C27H50O9
SMILES: O=C(OCC(O)COC1OC(CO)C(O)C(O)C1O)CCCCCCCC=CCCCCCCCC
INCHIKEY: NFWYGIXMHGBINM-UHFFFAOYSA-N
COMPOUNDCLASS: MGMG
RETENTIONTIME: 
COMMENT: 
Num Peaks: 2
577.359336	200
281.248604	999

NAME: MGMG 18:1
PRECURSORMZ: 536.379308733
PRECURSORTYPE: [M+NH4]+
IONMODE: Positive
FORMULA: C27H50O9
SMILES: O=C(OCC(O)COC1OC(CO)C(O)C(O)C1O)CCCCCCCC=CCCCCCCCC
INCHIKEY: NFWYGIXMHGBINM-UHFFFAOYSA-N
COMPOUNDCLASS: MGMG
RETENTIONTIME: 
COMMENT: 
Num Peaks: 4
536.379309	100
339.289371	999
265.252592	500
247.242027	500

NAME: MG 18:1
PRECURSORMZ: 374.326485313
PRECURSORTYPE: [M+NH4]+
IONMODE: Positive
FORMULA: C21H40O4
SMILES: O=C(OCC(O)CO)CCCCCCCC=CCCCCCCCC
INCHIKEY: RZRNAYUHWVFMIP-UHFFFAOYSA-N
COMPOUNDCLASS: MG
RETENTIONTIME: 
COMMENT: 
Num Peaks: 3
374.326485	100
357.299936	50
339.289371	999

NAME: MLCL 14:0_16:0_18:1
PRECURSORMZ: 1111.7196
PRECURSORTYPE: [M-H]-
IONMODE: Negative
FORMULA: C57H110O16P2
SMILES: O=C(OCC(O)COP(=O)(O)OCC(O)COP(=O)(O)OCC(OC(=O)CCCCCCCC=CCCCCCCCC)COC(=O)CCCCCCCCCCCCC)CCCCCCCCCCCCCCC
INCHIKEY: JFLULQZSFRUIMT-UHFFFAOYSA-N
COMPOUNDCLASS: MLCL
RETENTIONTIME: 
COMMENT: 
Num Peaks: 7
1111.719634	999
673.481379	300
381.204764	300
281.248604	100
255.232954	100
227.201654	100
152.995834	300

NAME: MLCL 20:4_16:0_18:1
PRECURSORMZ: 1187.7509
PRECURSORTYPE: [M-H]-
IONMODE: Negative
FORMULA: C63H114O16P2
SMILES: O=C(OCC(O)COP(=O)(O)OCC(O)COP(=O)(O)OCC(OC(=O)CCCCCCCC=CCCCCCCCC)COC(=O)CCCCCCC=CCC=CCC=CCC=CCC)CCCCCCCCCCCCCCC
INCHIKEY: MCUGMBGYWNFJAI-UHFFFAOYSA-N
COMPOUNDCLASS: MLCL
RETENTIONTIME: 
COMMENT: 
Num Peaks: 7
1187.750934	999
673.481379	300
457.236064	300
303.232954	100
281.248604	100
255.232954	100
152.995834	300

NAME: TG 16:0_18:1_14:0;O
PRECURSORMZ: 838.7494
PRECURSORTYPE: [M+NH4]+
IONMODE: Positive
FORMULA: C51H96O7
SMILES: O=C(OCC(OC(=O)CCCCCCCC=CCCCCCCCC)COC(=O)CCCCCCC(O)CCCCCC)CCCCCCCCCCCCCCC
INCHIKEY: YHNSVYJJBHKKKW-UHFFFAOYSA-N
COMPOUNDCLASS: OxTG
RETENTIONTIME: 
COMMENT: 
Num Peaks: 11
838.749431	100
821.722882	50
803.712317	500
577.519037	999
565.482652	999
547.472087	500
539.467002	999
521.456437	500
339.289371	100
313.273721	100
227.200556	200

NAME: TG 16:0_18:1_20:4;O
PRECURSORMZ: 914.7807
PRECURSORTYPE: [M+NH4]+
IONMODE: Positive
FORMULA: C57H100O7
SMILES: O=C(OCC(OC(=O)CCCCCCCC=CCCCCCCCC)COC(=O)CCCCCC(O)C=CCC=CCC=CCC=CCC)CCCCCCCCCCCCCCC
INCHIKEY: LFJNXPZNAUQVIP-UHFFFAOYSA-N
COMPOUNDCLASS: OxTG
RETENTIONTIME: 
COMMENT: 
Num Peaks: 11
914.780731	100
897.754182	50
879.743617	500
641.513952	999
623.503387	500
615.498302	999
597.487737	500
577.519037	999
339.289371	100
313.273721	100
303.231857	200

NAME: SMGDG 16:0_18:1
PRECURSORMZ: 835.5246872003
PRECURSORTYPE: [M-H]-
IONMODE: Negative
FORMULA: C43H80O13S
SMILES: O=C(OCC(OC(=O)CCCCCCCC=CCCCCCCCC)COC1OC(CO)C(O)C(OS(=O)(=O)O)C1O)CCCCCCCCCCCCCCC
INCHIKEY: RLKWCOQWOZZAAA-UHFFFAOYSA-N
COMPOUNDCLASS: SMGDG
RETENTIONTIME: 
COMMENT: 
Num Peaks: 7
835.524687	999
579.284457	10
553.268807	10
281.248604	10
255.232954	10
241.002362	10
96.960103	10

NAME: SQDG 16:0_18:1
PRECURSORMZ: 819.5297725803
PRECURSORTYPE: [M-H]-
IONMODE: Negative
FORMULA: C43H80O12S
SMILES: O=C(OCC(OC(=O)CCCCCCCC=CCCCCCCCC)COC1OC(CS(=O)(=O)O)C(O)C(O)C1O)CCCCCCCCCCCCCCC
INCHIKEY: SQOJCPIJIDPYDD-UHFFFAOYSA-N
COMPOUNDCLASS: SQDG
RETENTIONTIME: 
COMMENT: 
Num Peaks: 6
819.529773	999
563.289542	100
537.273892	100
281.248604	100
255.232954	100
225.007447	200

NAME: SQDG 16:0_18:1
PRECURSORMZ: 838.570874553
PRECURSORTYPE: [M+NH4]+
IONMODE: Positive
FORMULA: C43H80O12S
SMILES: O=C(OCC(OC(=O)CCCCCCCC=CCCCCCCCC)COC1OC(CS(=O)(=O)O)C(O)C(O)C1O)CCCCCCCCCCCCCCC
INCHIKEY: SQOJCPIJIDPYDD-UHFFFAOYSA-N
COMPOUNDCLASS: SQDG
RETENTIONTIME: 
COMMENT: 
Num Peaks: 9
838.570875	50
595.529602	100
577.519037	200
565.304095	100
539.288445	100
339.289371	999
313.273721	999
265.252592	100
239.236942	100

NAME: TG_d5 16:0_18:1_20:4
PRECURSORMZ: 908.7726
PRECURSORTYPE: [M+Na]+
IONMODE: Positive
FORMULA: C57H95D5O6
SMILES: C([2H])([2H])(OC(CCCCCCCCCCCCCCC)=O)C(OC(CCCCCCC/C=C\CCCCCCCC)=O)([2H])C(OC(CCCCCC/C=C\C/C=C\C/C=C\C/C=C\CC)=O)([2H])[2H]
INCHIKEY: WNGNQJVTTOEUDY-BNBIYGQLSA-N
COMPOUNDCLASS: TG_d5
RETENTIONTIME: 
COMMENT: 
Num Peaks: 4
908.772595	999
652.532365	50
626.516715	50
604.532365	50

NAME: TG_d5 16:0_18:1_20:4
PRECURSORMZ: 903.8172
PRECURSORTYPE: [M+NH4]+
IONMODE: Positive
FORMULA: C57H95D5O6
SMILES: C([2H])([2H])(OC(CCCCCCCCCCCCCCC)=O)C(OC(CCCCCCC/C=C\CCCCCCCC)=O)([2H])C(OC(CCCCCC/C=C\C/C=C\C/C=C\C/C=C\CC)=O)([2H])[2H]
INCHIKEY: WNGNQJVTTOEUDY-BNBIYGQLSA-N
COMPOUNDCLASS: TG_d5
RETENTIONTIME: 
COMMENT: 
Num Peaks: 5
903.8172	100
886.790651	50
630.550421	999
604.534771	999
582.550421	999

NAME: TG 12:0_14:0_16:1;O(FA 18:1)
PRECURSORMZ: 1018.9008
PRECURSORTYPE: [M+NH4]+
IONMODE: Positive
FORMULA: C63H116O8
SMILES: O=C(OCC(OC(=O)CCCCCCCCCCCCC)COC(=O)CCCCCCC(OC(=O)CCCCCCCC=CCCCCCCCC)C=CCCCCCC)CCCCCCCCCCC
INCHIKEY: AZDFMFZMJCGICN-UHFFFAOYSA-N
COMPOUNDCLASS: TG_EST
RETENTIONTIME: 
COMMENT: 
Num Peaks: 8
1018.900846	200
1001.874297	50
801.696667	800
773.665367	800
719.618417	250
519.440787	100
491.409487	100
467.409487	999

NAME: TG 16:0_18:1_20:4
PRECURSORMZ: 903.7412
PRECURSORTYPE: [M+Na]+
IONMODE: Positive
FORMULA: C57H100O6
SMILES: O=C(OCC(OC(=O)CCCCCCCC=CCCCCCCCC)COC(=O)CCCCCCCCCCCCCCC)CCCCCCC=CCC=CCC=CCC=CCC
INCHIKEY: WNGNQJVTTOEUDY-UHFFFAOYSA-N
COMPOUNDCLASS: TG
RETENTIONTIME: 
COMMENT: 
Num Peaks: 4
903.741212	999
647.500981	50
621.485331	50
599.500981	50

NAME: TG 16:0_18:1_20:4
PRECURSORMZ: 898.7858
PRECURSORTYPE: [M+NH4]+
IONMODE: Positive
FORMULA: C57H100O6
SMILES: O=C(OCC(OC(=O)CCCCCCCC=CCCCCCCCC)COC(=O)CCCCCCCCCCCCCCC)CCCCCCC=CCC=CCC=CCC=CCC
INCHIKEY: WNGNQJVTTOEUDY-UHFFFAOYSA-N
COMPOUNDCLASS: TG
RETENTIONTIME: 
COMMENT: 
Num Peaks: 5
898.785816	100
881.759267	50
625.519037	999
599.503387	999
577.519037	999

