NAME: BisMeLPA 18:1
PRECURSORMZ: 465.2975668297
PRECURSORTYPE: [M+H]+
IONMODE: Positive
FORMULA: C23H45O7P
SMILES: O=C(OCC(O)COP(=O)(OC)OC)CCCCCCCC=CCCCCCCCC
INCHIKEY: ASKTWGZHLOOGNJ-UHFFFAOYSA-N
COMPOUNDCLASS: BisMeLPA
RETENTIONTIME: 
COMMENT: 
Num Peaks: 6
465.297567	1
447.287002	200
339.289371	999
183.041687	150
165.031122	200
127.015472	400

NAME: bmPC 16:0_18:1
PRECURSORMZ: 818.59165813
PRECURSORTYPE: [M+HCOO]-
IONMODE: Negative
FORMULA: C43H84NO8P
SMILES: O=C(OCC(OC(=O)CCCCCCCC=CCCCCCCCC)COP(=O)([O-])OC(C)C[N+](C)(C)C)CCCCCCCCCCCCCCC
INCHIKEY: LTKARJWBHDBQTK-UHFFFAOYSA-N
COMPOUNDCLASS: bmPC
RETENTIONTIME: 
COMMENT: 
Num Peaks: 8
818.591658	200
758.570529	999
520.340863	50
502.330299	50
494.325213	50
476.314648	50
281.248604	600
255.232954	600

NAME: bmPC 16:0_18:1
PRECURSORMZ: 832.607308195
PRECURSORTYPE: [M+CH3COO]-
IONMODE: Negative
FORMULA: C43H84NO8P
SMILES: O=C(OCC(OC(=O)CCCCCCCC=CCCCCCCCC)COP(=O)([O-])OC(C)C[N+](C)(C)C)CCCCCCCCCCCCCCC
INCHIKEY: LTKARJWBHDBQTK-UHFFFAOYSA-N
COMPOUNDCLASS: bmPC
RETENTIONTIME: 
COMMENT: 
Num Peaks: 8
832.607308	200
758.570529	999
520.340863	50
502.330299	50
494.325213	50
476.314648	50
281.248604	600
255.232954	600

NAME: bmPC 16:0_18:1
PRECURSORMZ: 774.6007316977
PRECURSORTYPE: [M+H]+
IONMODE: Positive
FORMULA: C43H84NO8P
SMILES: O=C(OCC(OC(=O)CCCCCCCC=CCCCCCCCC)COP(=O)([O-])OC(C)C[N+](C)(C)C)CCCCCCCCCCCCCCC
INCHIKEY: LTKARJWBHDBQTK-UHFFFAOYSA-N
COMPOUNDCLASS: bmPC
RETENTIONTIME: 
COMMENT: 
Num Peaks: 7
774.600732	300
536.371066	50
518.360501	50
510.355416	50
492.344851	50
198.088971	999
100.112076	100

NAME: bmPC 36:2
PRECURSORMZ: 822.598326042
PRECURSORTYPE: [M+Na]+
IONMODE: Positive
FORMULA: C45H86NO8P
SMILES: O=C(OCC(OC(=O)CCCCCCCC=CCCCCCCCC)COP(=O)([O-])OC(C)C[N+](C)(C)C)CCCCCCCC=CCCCCCCCC
INCHIKEY: BJABKZWOBCGGTF-UHFFFAOYSA-N
COMPOUNDCLASS: bmPC
RETENTIONTIME: 
COMMENT: 
Num Peaks: 6
822.598326	999
763.524827	500
625.516631	600
603.534687	400
160.997416	400
100.112076	100

NAME: bmPC 34:1
PRECURSORMZ: 796.582675978
PRECURSORTYPE: [M+Na]+
IONMODE: Positive
FORMULA: C43H84NO8P
SMILES: O=C(OCC(OC(=O)CCCCCCCC=CCCCCCCCC)COP(=O)([O-])OC(C)C[N+](C)(C)C)CCCCCCCCCCCCCCC
INCHIKEY: LTKARJWBHDBQTK-UHFFFAOYSA-N
COMPOUNDCLASS: bmPC
RETENTIONTIME: 
COMMENT: 
Num Peaks: 6
796.582676	999
737.509177	500
599.500981	600
577.519037	400
160.997416	400
100.112076	100

NAME: bmPC 32:0
PRECURSORMZ: 770.567025914
PRECURSORTYPE: [M+Na]+
IONMODE: Positive
FORMULA: C41H82NO8P
SMILES: O=C(OCC(OC(=O)CCCCCCCCCCCCCCC)COP(=O)([O-])OC(C)C[N+](C)(C)C)CCCCCCCCCCCCCCC
INCHIKEY: LQSOXFZVVHFPKU-UHFFFAOYSA-N
COMPOUNDCLASS: bmPC
RETENTIONTIME: 
COMMENT: 
Num Peaks: 6
770.567026	999
711.493527	500
573.485331	600
551.503387	400
160.997416	400
100.112076	100

NAME: BMP 16:0_18:1
PRECURSORMZ: 766.559260847
PRECURSORTYPE: [M+NH4]+
IONMODE: Positive
FORMULA: C40H77O10P
SMILES: O=C(OC(CO)COP(=O)(O)OCC(OC(=O)CCCCCCCCCCCCCCC)CO)CCCCCCCC=CCCCCCCCC
INCHIKEY: SYTYABKFFXZOKX-UHFFFAOYSA-N
COMPOUNDCLASS: BMP
RETENTIONTIME: 
COMMENT: 
Num Peaks: 4
766.559261	50
577.519037	50
339.289371	999
313.273721	999

NAME: DMPE 16:0_18:1
PRECURSORMZ: 744.5548787303
PRECURSORTYPE: [M-H]-
IONMODE: Negative
FORMULA: C41H80NO8P
SMILES: O=C(OCC(OC(=O)CCCCCCCC=CCCCCCCCC)COP(=O)(O)OCCN(C)C)CCCCCCCCCCCCCCC
INCHIKEY: ZSVMWQMKUKDZTH-UHFFFAOYSA-N
COMPOUNDCLASS: DMPE
RETENTIONTIME: 
COMMENT: 
Num Peaks: 9
744.554879	150
506.325213	10
488.314648	10
480.309563	10
462.298998	10
281.248604	999
255.232954	999
224.069333	5
168.043118	5

NAME: DMPE 16:0_18:1
PRECURSORMZ: 746.5694315697
PRECURSORTYPE: [M+H]+
IONMODE: Positive
FORMULA: C41H80NO8P
SMILES: O=C(OCC(OC(=O)CCCCCCCC=CCCCCCCCC)COP(=O)(O)OCCN(C)C)CCCCCCCCCCCCCCC
INCHIKEY: ZSVMWQMKUKDZTH-UHFFFAOYSA-N
COMPOUNDCLASS: DMPE
RETENTIONTIME: 
COMMENT: 
Num Peaks: 7
746.569432	100
577.519037	999
265.252592	50
247.242027	10
239.236942	50
221.226377	10
170.057671	200

NAME: LPC O-18:1
PRECURSORMZ: 552.36707793
PRECURSORTYPE: [M+HCOO]-
IONMODE: Negative
FORMULA: C26H54NO6P
SMILES: O=P([O-])(OCC[N+](C)(C)C)OCC(OCCCCCCCCC=CCCCCCCCC)CO
INCHIKEY: LGYDTKYITBAFRQ-UHFFFAOYSA-N
COMPOUNDCLASS: EtherLPC
RETENTIONTIME: 
COMMENT: 
Num Peaks: 5
552.367078	1
492.345949	999
403.261885	150
168.043118	100
78.959054	130

NAME: LPC O-18:1
PRECURSORMZ: 566.382727995
PRECURSORTYPE: [M+CH3COO]-
IONMODE: Negative
FORMULA: C26H54NO6P
SMILES: O=P([O-])(OCC[N+](C)(C)C)OCC(OCCCCCCCCC=CCCCCCCCC)CO
INCHIKEY: LGYDTKYITBAFRQ-UHFFFAOYSA-N
COMPOUNDCLASS: EtherLPC
RETENTIONTIME: 
COMMENT: 
Num Peaks: 5
566.382728	1
492.345949	999
403.261885	150
168.043118	100
78.959054	130

NAME: LPC O-18:1
PRECURSORMZ: 568.361992549
PRECURSORTYPE: [M+HCO3]-
IONMODE: Negative
FORMULA: C26H54NO6P
SMILES: O=P([O-])(OCC[N+](C)(C)C)OCC(OCCCCCCCCC=CCCCCCCCC)CO
INCHIKEY: LGYDTKYITBAFRQ-UHFFFAOYSA-N
COMPOUNDCLASS: EtherLPC
RETENTIONTIME: 
COMMENT: 
Num Peaks: 4
568.361993	200
506.361599	100
447.288099	200
421.272449	999

NAME: LPC O-18:1
PRECURSORMZ: 508.3761514977
PRECURSORTYPE: [M+H]+
IONMODE: Positive
FORMULA: C26H54NO6P
SMILES: O=P([O-])(OCC[N+](C)(C)C)OCC(OCCCCCCCCC=CCCCCCCCC)CO
INCHIKEY: LGYDTKYITBAFRQ-UHFFFAOYSA-N
COMPOUNDCLASS: EtherLPC
RETENTIONTIME: 
COMMENT: 
Num Peaks: 5
508.376151	500
184.073321	500
124.999822	300
104.10699	999
86.096426	300

NAME: LPE O-18:1
PRECURSORMZ: 464.3146484663
PRECURSORTYPE: [M-H]-
IONMODE: Negative
FORMULA: C23H48NO6P
SMILES: O=P(O)(OCCN)OCC(O)COCCCCCCCCC=CCCCCCCCC
INCHIKEY: CDONWGCJDDHTLP-UHFFFAOYSA-N
COMPOUNDCLASS: EtherLPE
RETENTIONTIME: 
COMMENT: 
Num Peaks: 4
464.314648	999
403.261885	250
140.011818	250
78.959054	600

NAME: LPE O-18:1
PRECURSORMZ: 466.3292013057
PRECURSORTYPE: [M+H]+
IONMODE: Positive
FORMULA: C23H48NO6P
SMILES: O=P(O)(OCCN)OCC(O)COCCCCCCCCC=CCCCCCCCC
INCHIKEY: CDONWGCJDDHTLP-UHFFFAOYSA-N
COMPOUNDCLASS: EtherLPE
RETENTIONTIME: 
COMMENT: 
Num Peaks: 3
466.329201	200
423.287002	999
325.310107	999

NAME: LPE P-18:0
PRECURSORMZ: 464.3146484663
PRECURSORTYPE: [M-H]-
IONMODE: Negative
FORMULA: C23H48NO6P
SMILES: O=P(O)(OCCN)OCC(O)COC=CCCCCCCCCCCCCCCCC
INCHIKEY: KACDZDULGKPXHT-UHFFFAOYSA-N
COMPOUNDCLASS: EtherLPE
RETENTIONTIME: 
COMMENT: 
Num Peaks: 5
464.314648	999
267.269339	999
196.038033	500
140.011818	300
78.959054	600

NAME: LPE P-18:0
PRECURSORMZ: 466.3292013057
PRECURSORTYPE: [M+H]+
IONMODE: Positive
FORMULA: C23H48NO6P
SMILES: O=P(O)(OCCN)OCC(O)COC=CCCCCCCCCCCCCCCCC
INCHIKEY: KACDZDULGKPXHT-UHFFFAOYSA-N
COMPOUNDCLASS: EtherLPE
RETENTIONTIME: 
COMMENT: 
Num Peaks: 3
466.329201	200
312.326091	350
294.315527	999

NAME: LPG O-18:1
PRECURSORMZ: 495.3092287383
PRECURSORTYPE: [M-H]-
IONMODE: Negative
FORMULA: C24H49O8P
SMILES: O=P(O)(OCC(O)CO)OCC(O)COCCCCCCCCC=CCCCCCCCC
INCHIKEY: WOQCBNBIWAYDQK-UHFFFAOYSA-N
COMPOUNDCLASS: EtherLPG
RETENTIONTIME: 
COMMENT: 
Num Peaks: 5
495.309229	700
267.269339	300
171.006398	50
152.995834	999
78.959054	500

NAME: PC O-18:1_16:0;O
PRECURSORMZ: 806.5917
PRECURSORTYPE: [M+HCOO]-
IONMODE: Negative
FORMULA: C42H84NO8P
SMILES: O=C(OC(COCCCCCCCCC=CCCCCCCCC)COP(=O)([O-])OCC[N+](C)(C)C)CCCCCCC(O)CCCCCCCC
INCHIKEY: KKLLFYFKNXKGMX-UHFFFAOYSA-N
COMPOUNDCLASS: EtherOxPC
RETENTIONTIME: 
COMMENT: 
Num Peaks: 7
806.591658	300
746.570529	800
492.345949	200
474.335384	200
271.227868	999
253.217304	50
224.069333	100

NAME: PC O-16:0_18:1;O
PRECURSORMZ: 806.5917
PRECURSORTYPE: [M+HCOO]-
IONMODE: Negative
FORMULA: C42H84NO8P
SMILES: O=C(OC(COCCCCCCCCCCCCCCCC)COP(=O)([O-])OCC[N+](C)(C)C)CCCCCCC(O)C=CCCCCCCCC
INCHIKEY: GNSMJLBPVKHBMK-UHFFFAOYSA-N
COMPOUNDCLASS: EtherOxPC
RETENTIONTIME: 
COMMENT: 
Num Peaks: 7
806.591658	300
746.570529	800
466.330299	200
448.319734	200
297.243519	999
279.232954	50
224.069333	100

NAME: PC O-18:1_16:0;O
PRECURSORMZ: 820.6073
PRECURSORTYPE: [M+CH3COO]-
IONMODE: Negative
FORMULA: C42H84NO8P
SMILES: O=C(OC(COCCCCCCCCC=CCCCCCCCC)COP(=O)([O-])OCC[N+](C)(C)C)CCCCCCC(O)CCCCCCCC
INCHIKEY: KKLLFYFKNXKGMX-UHFFFAOYSA-N
COMPOUNDCLASS: EtherOxPC
RETENTIONTIME: 
COMMENT: 
Num Peaks: 7
820.607308	300
746.570529	800
492.345949	200
474.335384	200
271.227868	999
253.217304	50
224.069333	100

NAME: PC O-16:0_18:1;O
PRECURSORMZ: 820.6073
PRECURSORTYPE: [M+CH3COO]-
IONMODE: Negative
FORMULA: C42H84NO8P
SMILES: O=C(OC(COCCCCCCCCCCCCCCCC)COP(=O)([O-])OCC[N+](C)(C)C)CCCCCCC(O)C=CCCCCCCCC
INCHIKEY: GNSMJLBPVKHBMK-UHFFFAOYSA-N
COMPOUNDCLASS: EtherOxPC
RETENTIONTIME: 
COMMENT: 
Num Peaks: 7
820.607308	300
746.570529	800
466.330299	200
448.319734	200
297.243519	999
279.232954	50
224.069333	100

NAME: PC O-18:1_16:0;O
PRECURSORMZ: 822.5866
PRECURSORTYPE: [M+HCO3]-
IONMODE: Negative
FORMULA: C42H84NO8P
SMILES: O=C(OC(COCCCCCCCCC=CCCCCCCCC)COP(=O)([O-])OCC[N+](C)(C)C)CCCCCCC(O)CCCCCCCC
INCHIKEY: KKLLFYFKNXKGMX-UHFFFAOYSA-N
COMPOUNDCLASS: EtherOxPC
RETENTIONTIME: 
COMMENT: 
Num Peaks: 5
822.586573	200
701.51268	999
431.293185	200
271.227868	400
253.217304	100

NAME: PC O-16:0_18:1;O
PRECURSORMZ: 822.5866
PRECURSORTYPE: [M+HCO3]-
IONMODE: Negative
FORMULA: C42H84NO8P
SMILES: O=C(OC(COCCCCCCCCCCCCCCCC)COP(=O)([O-])OCC[N+](C)(C)C)CCCCCCC(O)C=CCCCCCCCC
INCHIKEY: GNSMJLBPVKHBMK-UHFFFAOYSA-N
COMPOUNDCLASS: EtherOxPC
RETENTIONTIME: 
COMMENT: 
Num Peaks: 5
822.586573	200
701.51268	999
405.277535	200
297.243519	400
279.232954	100

NAME: PE O-18:1_16:0;O
PRECURSORMZ: 718.5392
PRECURSORTYPE: [M-H]-
IONMODE: Negative
FORMULA: C39H78NO8P
SMILES: O=C(OC(COCCCCCCCCC=CCCCCCCCC)COP(=O)(O)OCCN)CCCCCCC(O)CCCCCCCC
INCHIKEY: ANEBTKWELVWHBN-UHFFFAOYSA-N
COMPOUNDCLASS: EtherOxPE
RETENTIONTIME: 
COMMENT: 
Num Peaks: 4
718.539229	500
464.314648	250
271.227868	999
253.217304	50

NAME: PE O-16:0_18:1;O
PRECURSORMZ: 718.5392
PRECURSORTYPE: [M-H]-
IONMODE: Negative
FORMULA: C39H78NO8P
SMILES: O=C(OC(COCCCCCCCCCCCCCCCC)COP(=O)(O)OCCN)CCCCCCC(O)C=CCCCCCCCC
INCHIKEY: XRTJZEYMQFEBDA-UHFFFAOYSA-N
COMPOUNDCLASS: EtherOxPE
RETENTIONTIME: 
COMMENT: 
Num Peaks: 4
718.539229	500
438.298998	250
297.243519	999
279.232954	50

NAME: PC O-18:1_16:0
PRECURSORMZ: 790.5967
PRECURSORTYPE: [M+HCOO]-
IONMODE: Negative
FORMULA: C42H84NO7P
SMILES: O=C(OC(COCCCCCCCCC=CCCCCCCCC)COP(=O)([O-])OCC[N+](C)(C)C)CCCCCCCCCCCCCCC
INCHIKEY: IQLHTKSHLGLPMG-UHFFFAOYSA-N
COMPOUNDCLASS: EtherPC
RETENTIONTIME: 
COMMENT: 
Num Peaks: 6
790.596744	300
730.575614	800
492.345949	200
474.335384	200
255.232954	999
224.069333	100

NAME: PC O-16:0_18:1
PRECURSORMZ: 790.5967
PRECURSORTYPE: [M+HCOO]-
IONMODE: Negative
FORMULA: C42H84NO7P
SMILES: O=C(OC(COCCCCCCCCCCCCCCCC)COP(=O)([O-])OCC[N+](C)(C)C)CCCCCCCC=CCCCCCCCC
INCHIKEY: SIEDNCDNGMIKST-UHFFFAOYSA-N
COMPOUNDCLASS: EtherPC
RETENTIONTIME: 
COMMENT: 
Num Peaks: 6
790.596744	300
730.575614	800
466.330299	200
448.319734	200
281.248604	999
224.069333	100

NAME: PC O-18:1_16:0
PRECURSORMZ: 804.6124
PRECURSORTYPE: [M+CH3COO]-
IONMODE: Negative
FORMULA: C42H84NO7P
SMILES: O=C(OC(COCCCCCCCCC=CCCCCCCCC)COP(=O)([O-])OCC[N+](C)(C)C)CCCCCCCCCCCCCCC
INCHIKEY: IQLHTKSHLGLPMG-UHFFFAOYSA-N
COMPOUNDCLASS: EtherPC
RETENTIONTIME: 
COMMENT: 
Num Peaks: 6
804.612394	300
730.575614	800
492.345949	200
474.335384	200
255.232954	999
224.069333	100

NAME: PC O-16:0_18:1
PRECURSORMZ: 804.6124
PRECURSORTYPE: [M+CH3COO]-
IONMODE: Negative
FORMULA: C42H84NO7P
SMILES: O=C(OC(COCCCCCCCCCCCCCCCC)COP(=O)([O-])OCC[N+](C)(C)C)CCCCCCCC=CCCCCCCCC
INCHIKEY: SIEDNCDNGMIKST-UHFFFAOYSA-N
COMPOUNDCLASS: EtherPC
RETENTIONTIME: 
COMMENT: 
Num Peaks: 6
804.612394	300
730.575614	800
466.330299	200
448.319734	200
281.248604	999
224.069333	100

NAME: PC O-18:1_16:0
PRECURSORMZ: 806.5917
PRECURSORTYPE: [M+HCO3]-
IONMODE: Negative
FORMULA: C42H84NO7P
SMILES: O=C(OC(COCCCCCCCCC=CCCCCCCCC)COP(=O)([O-])OCC[N+](C)(C)C)CCCCCCCCCCCCCCC
INCHIKEY: IQLHTKSHLGLPMG-UHFFFAOYSA-N
COMPOUNDCLASS: EtherPC
RETENTIONTIME: 
COMMENT: 
Num Peaks: 7
806.591658	999
744.591264	100
730.575614	100
685.517765	300
659.502115	100
431.293185	200
255.232954	200

NAME: PC O-16:0_18:1
PRECURSORMZ: 806.5917
PRECURSORTYPE: [M+HCO3]-
IONMODE: Negative
FORMULA: C42H84NO7P
SMILES: O=C(OC(COCCCCCCCCCCCCCCCC)COP(=O)([O-])OCC[N+](C)(C)C)CCCCCCCC=CCCCCCCCC
INCHIKEY: SIEDNCDNGMIKST-UHFFFAOYSA-N
COMPOUNDCLASS: EtherPC
RETENTIONTIME: 
COMMENT: 
Num Peaks: 7
806.591658	999
744.591264	100
730.575614	100
685.517765	300
659.502115	100
405.277535	200
281.248604	200

NAME: PC O-18:1_16:0
PRECURSORMZ: 746.6058
PRECURSORTYPE: [M+H]+
IONMODE: Positive
FORMULA: C42H84NO7P
SMILES: O=C(OC(COCCCCCCCCC=CCCCCCCCC)COP(=O)([O-])OCC[N+](C)(C)C)CCCCCCCCCCCCCCC
INCHIKEY: IQLHTKSHLGLPMG-UHFFFAOYSA-N
COMPOUNDCLASS: EtherPC
RETENTIONTIME: 
COMMENT: 
Num Peaks: 4
746.605817	200
563.539773	20
508.376151	20
184.073321	999

NAME: PC O-16:0_18:1
PRECURSORMZ: 746.6058
PRECURSORTYPE: [M+H]+
IONMODE: Positive
FORMULA: C42H84NO7P
SMILES: O=C(OC(COCCCCCCCCCCCCCCCC)COP(=O)([O-])OCC[N+](C)(C)C)CCCCCCCC=CCCCCCCCC
INCHIKEY: SIEDNCDNGMIKST-UHFFFAOYSA-N
COMPOUNDCLASS: EtherPC
RETENTIONTIME: 
COMMENT: 
Num Peaks: 4
746.605817	200
563.539773	20
482.360501	20
184.073321	999

NAME: PE O-18:1_16:0
PRECURSORMZ: 702.5443
PRECURSORTYPE: [M-H]-
IONMODE: Negative
FORMULA: C39H78NO7P
SMILES: O=C(OC(COCCCCCCCCC=CCCCCCCCC)COP(=O)(O)OCCN)CCCCCCCCCCCCCCC
INCHIKEY: KJDVLWWPMOBWGU-UHFFFAOYSA-N
COMPOUNDCLASS: EtherPE
RETENTIONTIME: 
COMMENT: 
Num Peaks: 3
702.544314	500
464.314648	250
255.232954	999

NAME: PE O-16:0_18:1
PRECURSORMZ: 702.5443
PRECURSORTYPE: [M-H]-
IONMODE: Negative
FORMULA: C39H78NO7P
SMILES: O=C(OC(COCCCCCCCCCCCCCCCC)COP(=O)(O)OCCN)CCCCCCCC=CCCCCCCCC
INCHIKEY: JJGMGPGKWYLISM-UHFFFAOYSA-N
COMPOUNDCLASS: EtherPE
RETENTIONTIME: 
COMMENT: 
Num Peaks: 3
702.544314	500
438.298998	250
281.248604	999

NAME: PE O-18:1_16:0
PRECURSORMZ: 704.5589
PRECURSORTYPE: [M+H]+
IONMODE: Positive
FORMULA: C39H78NO7P
SMILES: O=C(OC(COCCCCCCCCC=CCCCCCCCC)COP(=O)(O)OCCN)CCCCCCCCCCCCCCC
INCHIKEY: KJDVLWWPMOBWGU-UHFFFAOYSA-N
COMPOUNDCLASS: EtherPE
RETENTIONTIME: 
COMMENT: 
Num Peaks: 3
704.558867	1
563.539773	999
239.236942	1

NAME: PE O-16:0_18:1
PRECURSORMZ: 704.5589
PRECURSORTYPE: [M+H]+
IONMODE: Positive
FORMULA: C39H78NO7P
SMILES: O=C(OC(COCCCCCCCCCCCCCCCC)COP(=O)(O)OCCN)CCCCCCCC=CCCCCCCCC
INCHIKEY: JJGMGPGKWYLISM-UHFFFAOYSA-N
COMPOUNDCLASS: EtherPE
RETENTIONTIME: 
COMMENT: 
Num Peaks: 3
704.558867	1
563.539773	999
265.252592	1

NAME: PE P-18:0_18:1
PRECURSORMZ: 730.5745
PRECURSORTYPE: [M+H]+
IONMODE: Positive
FORMULA: C41H80NO7P
SMILES: O=C(OC(COC=CCCCCCCCCCCCCCCCC)COP(=O)(O)OCCN)CCCCCCCC=CCCCCCCCC
INCHIKEY: XVYPOHCSLJZFED-UHFFFAOYSA-N
COMPOUNDCLASS: EtherPE
RETENTIONTIME: 
COMMENT: 
Num Peaks: 5
730.574517	100
589.555423	200
392.292422	500
339.289371	999
294.315527	200

NAME: PE P-18:0_16:0
PRECURSORMZ: 704.5589
PRECURSORTYPE: [M+H]+
IONMODE: Positive
FORMULA: C39H78NO7P
SMILES: O=C(OC(COC=CCCCCCCCCCCCCCCCC)COP(=O)(O)OCCN)CCCCCCCCCCCCCCC
INCHIKEY: HEASGCOZOMIKFU-UHFFFAOYSA-N
COMPOUNDCLASS: EtherPE
RETENTIONTIME: 
COMMENT: 
Num Peaks: 5
704.558867	100
563.539773	200
392.292422	500
313.273721	999
294.315527	200

NAME: PG O-18:1_16:0
PRECURSORMZ: 733.5389
PRECURSORTYPE: [M-H]-
IONMODE: Negative
FORMULA: C40H79O9P
SMILES: O=C(OC(COCCCCCCCCC=CCCCCCCCC)COP(=O)(O)OCC(O)CO)CCCCCCCCCCCCCCC
INCHIKEY: HYKWYOORLWSMCU-UHFFFAOYSA-N
COMPOUNDCLASS: EtherPG
RETENTIONTIME: 
COMMENT: 
Num Peaks: 4
733.538894	999
283.264254	250
255.232954	900
152.995834	50

NAME: PG O-16:0_18:1
PRECURSORMZ: 733.5389
PRECURSORTYPE: [M-H]-
IONMODE: Negative
FORMULA: C40H79O9P
SMILES: O=C(OC(COCCCCCCCCCCCCCCCC)COP(=O)(O)OCC(O)CO)CCCCCCCC=CCCCCCCCC
INCHIKEY: VODQFHVPFFGTIS-UHFFFAOYSA-N
COMPOUNDCLASS: EtherPG
RETENTIONTIME: 
COMMENT: 
Num Peaks: 4
733.538894	999
281.248604	900
257.248604	250
152.995834	50

NAME: PI O-18:1_16:0
PRECURSORMZ: 821.5549
PRECURSORTYPE: [M-H]-
IONMODE: Negative
FORMULA: C43H83O12P
SMILES: O=C(OC(COCCCCCCCCC=CCCCCCCCC)COP(=O)(O)OC1C(O)C(O)C(O)C(O)C1O)CCCCCCCCCCCCCCC
INCHIKEY: LHBBLBJQJFRWTD-UHFFFAOYSA-N
COMPOUNDCLASS: EtherPI
RETENTIONTIME: 
COMMENT: 
Num Peaks: 6
821.554938	999
583.325273	100
565.314708	100
403.261885	200
255.232954	150
241.011877	200

NAME: PI O-16:0_18:1
PRECURSORMZ: 821.5549
PRECURSORTYPE: [M-H]-
IONMODE: Negative
FORMULA: C43H83O12P
SMILES: O=C(OC(COCCCCCCCCCCCCCCCC)COP(=O)(O)OC1C(O)C(O)C(O)C(O)C1O)CCCCCCCC=CCCCCCCCC
INCHIKEY: QXAIBJDDPUXXJM-UHFFFAOYSA-N
COMPOUNDCLASS: EtherPI
RETENTIONTIME: 
COMMENT: 
Num Peaks: 6
821.554938	999
557.309623	100
539.299058	100
377.246235	200
281.248604	150
241.011877	200

NAME: PS O-18:1_16:0
PRECURSORMZ: 746.5341
PRECURSORTYPE: [M-H]-
IONMODE: Negative
FORMULA: C40H78NO9P
SMILES: O=C(OC(COCCCCCCCCC=CCCCCCCCC)COP(=O)(O)OCC(N)C(=O)O)CCCCCCCCCCCCCCC
INCHIKEY: MXCZRMMJMAGBJF-UHFFFAOYSA-N
COMPOUNDCLASS: EtherPS
RETENTIONTIME: 
COMMENT: 
Num Peaks: 5
746.534143	100
659.502115	600
421.272449	999
403.261885	200
255.232954	100

NAME: PS O-16:0_18:1
PRECURSORMZ: 746.5341
PRECURSORTYPE: [M-H]-
IONMODE: Negative
FORMULA: C40H78NO9P
SMILES: O=C(OC(COCCCCCCCCCCCCCCCC)COP(=O)(O)OCC(N)C(=O)O)CCCCCCCC=CCCCCCCCC
INCHIKEY: UDEJBAWRBBYBQH-UHFFFAOYSA-N
COMPOUNDCLASS: EtherPS
RETENTIONTIME: 
COMMENT: 
Num Peaks: 5
746.534143	100
659.502115	600
395.256799	999
377.246235	200
281.248604	100

NAME: GPNAE 18:1
PRECURSORMZ: 478.2939130223
PRECURSORTYPE: [M-H]-
IONMODE: Negative
FORMULA: C23H46NO7P
SMILES: O=C(NCCOP(=O)(O)OCC(O)CO)CCCCCCCC=CCCCCCCCC
INCHIKEY: VBNXVCGZJCGEKO-UHFFFAOYSA-N
COMPOUNDCLASS: GPNAE
RETENTIONTIME: 
COMMENT: 
Num Peaks: 5
478.293913	999
404.257134	10
171.006398	600
152.995834	500
78.959054	999

NAME: GPNAE 18:1
PRECURSORMZ: 480.3084658617
PRECURSORTYPE: [M+H]+
IONMODE: Positive
FORMULA: C23H46NO7P
SMILES: O=C(NCCOP(=O)(O)OCC(O)CO)CCCCCCCC=CCCCCCCCC
INCHIKEY: VBNXVCGZJCGEKO-UHFFFAOYSA-N
COMPOUNDCLASS: GPNAE
RETENTIONTIME: 
COMMENT: 
Num Peaks: 2
480.308466	1
308.294791	999

NAME: HBMP 14:0_16:0_18:1
PRECURSORMZ: 957.7165
PRECURSORTYPE: [M-H]-
IONMODE: Negative
FORMULA: C54H103O11P
SMILES: O=C(OCC(OC(=O)CCCCCCCC=CCCCCCCCC)COP(=O)(O)OCC(OC(=O)CCCCCCCCCCCCCCC)CO)CCCCCCCCCCCCC
INCHIKEY: FURLZUKVYWWNQE-UHFFFAOYSA-N
COMPOUNDCLASS: HBMP
RETENTIONTIME: 
COMMENT: 
Num Peaks: 6
957.716524	999
729.507594	50
363.194199	50
281.248604	300
255.232954	300
227.201654	300

NAME: HBMP 20:4_16:0_18:1
PRECURSORMZ: 1033.7478
PRECURSORTYPE: [M-H]-
IONMODE: Negative
FORMULA: C60H107O11P
SMILES: O=C(OCC(OC(=O)CCCCCCCC=CCCCCCCCC)COP(=O)(O)OCC(OC(=O)CCCCCCCCCCCCCCC)CO)CCCCCCC=CCC=CCC=CCC=CCC
INCHIKEY: IPXYWCLKAJLYKU-UHFFFAOYSA-N
COMPOUNDCLASS: HBMP
RETENTIONTIME: 
COMMENT: 
Num Peaks: 6
1033.747824	999
729.507594	50
439.225499	50
303.232954	300
281.248604	300
255.232954	300

NAME: HBMP 14:0_16:0_18:1
PRECURSORMZ: 976.7576
PRECURSORTYPE: [M+NH4]+
IONMODE: Positive
FORMULA: C54H103O11P
SMILES: O=C(OCC(OC(=O)CCCCCCCC=CCCCCCCCC)COP(=O)(O)OCC(OC(=O)CCCCCCCCCCCCCCC)CO)CCCCCCCCCCCCC
INCHIKEY: FURLZUKVYWWNQE-UHFFFAOYSA-N
COMPOUNDCLASS: HBMP
RETENTIONTIME: 
COMMENT: 
Num Peaks: 5
976.757626	50
577.519037	999
339.289371	100
313.273721	100
285.242421	100

NAME: HBMP 20:4_16:0_18:1
PRECURSORMZ: 1052.7889
PRECURSORTYPE: [M+NH4]+
IONMODE: Positive
FORMULA: C60H107O11P
SMILES: O=C(OCC(OC(=O)CCCCCCCC=CCCCCCCCC)COP(=O)(O)OCC(OC(=O)CCCCCCCCCCCCCCC)CO)CCCCCCC=CCC=CCC=CCC=CCC
INCHIKEY: IPXYWCLKAJLYKU-UHFFFAOYSA-N
COMPOUNDCLASS: HBMP
RETENTIONTIME: 
COMMENT: 
Num Peaks: 5
1052.788926	50
577.519037	999
361.273721	100
339.289371	100
313.273721	100

NAME: LPE-N (FA 18:1)18:1
PRECURSORMZ: 742.5392
PRECURSORTYPE: [M-H]-
IONMODE: Negative
FORMULA: C41H78NO8P
SMILES: O=C(OCC(O)COP(=O)(O)OCCNC(=O)CCCCCCCC=CCCCCCCCC)CCCCCCCC=CCCCCCCCC
INCHIKEY: UQJFAJZAVYKPEN-UHFFFAOYSA-N
COMPOUNDCLASS: LNAPE
RETENTIONTIME: 
COMMENT: 
Num Peaks: 5
742.539229	700
478.293913	100
460.283348	100
281.248604	999
152.995834	50

NAME: LPE-N (FA 16:0)18:1
PRECURSORMZ: 716.5236
PRECURSORTYPE: [M-H]-
IONMODE: Negative
FORMULA: C39H76NO8P
SMILES: O=C(OCC(O)COP(=O)(O)OCCNC(=O)CCCCCCCCCCCCCCC)CCCCCCCC=CCCCCCCCC
INCHIKEY: VSRSTHVWSWNJCC-UHFFFAOYSA-N
COMPOUNDCLASS: LNAPE
RETENTIONTIME: 
COMMENT: 
Num Peaks: 5
716.523579	700
452.278263	100
434.267698	100
281.248604	999
152.995834	50

NAME: LPE-N (FA 18:1)16:0
PRECURSORMZ: 716.5236
PRECURSORTYPE: [M-H]-
IONMODE: Negative
FORMULA: C39H76NO8P
SMILES: O=C(OCC(O)COP(=O)(O)OCCNC(=O)CCCCCCCC=CCCCCCCCC)CCCCCCCCCCCCCCC
INCHIKEY: BKIBJAFJUCACAY-UHFFFAOYSA-N
COMPOUNDCLASS: LNAPE
RETENTIONTIME: 
COMMENT: 
Num Peaks: 5
716.523579	700
478.293913	100
460.283348	100
255.232954	999
152.995834	50

NAME: LPE-N (FA 16:0)16:0
PRECURSORMZ: 690.5079
PRECURSORTYPE: [M-H]-
IONMODE: Negative
FORMULA: C37H74NO8P
SMILES: O=C(OCC(O)COP(=O)(O)OCCNC(=O)CCCCCCCCCCCCCCC)CCCCCCCCCCCCCCC
INCHIKEY: VXNFVSFEDKCAHO-UHFFFAOYSA-N
COMPOUNDCLASS: LNAPE
RETENTIONTIME: 
COMMENT: 
Num Peaks: 5
690.507929	700
452.278263	100
434.267698	100
255.232954	999
152.995834	50

NAME: LPS-N (FA 18:1)18:1
PRECURSORMZ: 786.5291
PRECURSORTYPE: [M-H]-
IONMODE: Negative
FORMULA: C42H78NO10P
SMILES: O=C(OCC(O)COP(=O)(O)OCC(NC(=O)CCCCCCCC=CCCCCCCCC)C(=O)O)CCCCCCCC=CCCCCCCCC
INCHIKEY: SFBGTRKYYBEEDN-UHFFFAOYSA-N
COMPOUNDCLASS: LNAPS
RETENTIONTIME: 
COMMENT: 
Num Peaks: 3
786.529058	700
435.251714	999
152.995834	700

NAME: LPS-N (FA 16:0)18:1
PRECURSORMZ: 760.5134
PRECURSORTYPE: [M-H]-
IONMODE: Negative
FORMULA: C40H76NO10P
SMILES: O=C(OCC(O)COP(=O)(O)OCC(NC(=O)CCCCCCCCCCCCCCC)C(=O)O)CCCCCCCC=CCCCCCCCC
INCHIKEY: JQFLZDWSXDFTAS-UHFFFAOYSA-N
COMPOUNDCLASS: LNAPS
RETENTIONTIME: 
COMMENT: 
Num Peaks: 3
760.513408	700
435.251714	999
152.995834	700

NAME: LPS-N (FA 18:1)16:0
PRECURSORMZ: 760.5134
PRECURSORTYPE: [M-H]-
IONMODE: Negative
FORMULA: C40H76NO10P
SMILES: O=C(OCC(O)COP(=O)(O)OCC(NC(=O)CCCCCCCC=CCCCCCCCC)C(=O)O)CCCCCCCCCCCCCCC
INCHIKEY: FRNBSAHJPVILJU-UHFFFAOYSA-N
COMPOUNDCLASS: LNAPS
RETENTIONTIME: 
COMMENT: 
Num Peaks: 3
760.513408	700
409.236064	999
152.995834	700

NAME: LPS-N (FA 16:0)16:0
PRECURSORMZ: 734.4978
PRECURSORTYPE: [M-H]-
IONMODE: Negative
FORMULA: C38H74NO10P
SMILES: O=C(OCC(O)COP(=O)(O)OCC(NC(=O)CCCCCCCCCCCCCCC)C(=O)O)CCCCCCCCCCCCCCC
INCHIKEY: JVRMNRVOTHHXAV-UHFFFAOYSA-N
COMPOUNDCLASS: LNAPS
RETENTIONTIME: 
COMMENT: 
Num Peaks: 3
734.497758	700
409.236064	999
152.995834	700

NAME: LPA 18:1
PRECURSORMZ: 435.2517138623
PRECURSORTYPE: [M-H]-
IONMODE: Negative
FORMULA: C21H41O7P
SMILES: O=C(OCC(O)COP(=O)(O)O)CCCCCCCC=CCCCCCCCC
INCHIKEY: WRGQSWVCFNIUNZ-UHFFFAOYSA-N
COMPOUNDCLASS: LPA
RETENTIONTIME: 
COMMENT: 
Num Peaks: 3
435.251714	400
152.995834	999
78.959054	50

NAME: LPC_d5 18:1
PRECURSORMZ: 571.3777
PRECURSORTYPE: [M+HCOO]-
IONMODE: Negative
FORMULA: C26H47D5NO7P
SMILES: C([2H])([2H])(OC(CCCCCCC/C=C\CCCCCCCC)=O)C([2H])(O)C([2H])([2H])OP([O-])(=O)OCC[N+](C)(C)C
INCHIKEY: YAMUFBLWGFFICM-XZBYATMBSA-N
COMPOUNDCLASS: LPC_d5
RETENTIONTIME: 
COMMENT: 
Num Peaks: 4
571.377726	10
511.356597	400
281.248604	999
224.069333	100

NAME: LPC_d5 16:0
PRECURSORMZ: 545.3621
PRECURSORTYPE: [M+HCOO]-
IONMODE: Negative
FORMULA: C24H45D5NO7P
SMILES: C([2H])([2H])(OC(CCCCCCCCCCCCCCC)=O)C([2H])(O)C([2H])([2H])OP([O-])(=O)OCC[N+](C)(C)C
INCHIKEY: ASWBNKHCZGQVJV-DCMLGZEASA-N
COMPOUNDCLASS: LPC_d5
RETENTIONTIME: 
COMMENT: 
Num Peaks: 4
545.362076	10
485.340947	400
255.232954	999
224.069333	100

NAME: LPC_d5 18:1
PRECURSORMZ: 585.3934
PRECURSORTYPE: [M+CH3COO]-
IONMODE: Negative
FORMULA: C26H47D5NO7P
SMILES: C([2H])([2H])(OC(CCCCCCC/C=C\CCCCCCCC)=O)C([2H])(O)C([2H])([2H])OP([O-])(=O)OCC[N+](C)(C)C
INCHIKEY: YAMUFBLWGFFICM-XZBYATMBSA-N
COMPOUNDCLASS: LPC_d5
RETENTIONTIME: 
COMMENT: 
Num Peaks: 4
585.393376	10
511.356597	400
281.248604	999
224.069333	100

NAME: LPC_d5 16:0
PRECURSORMZ: 559.3777
PRECURSORTYPE: [M+CH3COO]-
IONMODE: Negative
FORMULA: C24H45D5NO7P
SMILES: C([2H])([2H])(OC(CCCCCCCCCCCCCCC)=O)C([2H])(O)C([2H])([2H])OP([O-])(=O)OCC[N+](C)(C)C
INCHIKEY: ASWBNKHCZGQVJV-DCMLGZEASA-N
COMPOUNDCLASS: LPC_d5
RETENTIONTIME: 
COMMENT: 
Num Peaks: 4
559.377726	10
485.340947	400
255.232954	999
224.069333	100

NAME: LPC_d5 18:1
PRECURSORMZ: 527.3868
PRECURSORTYPE: [M+H]+
IONMODE: Positive
FORMULA: C26H47D5NO7P
SMILES: C([2H])([2H])(OC(CCCCCCC/C=C\CCCCCCCC)=O)C([2H])(O)C([2H])([2H])OP([O-])(=O)OCC[N+](C)(C)C
INCHIKEY: YAMUFBLWGFFICM-XZBYATMBSA-N
COMPOUNDCLASS: LPC_d5
RETENTIONTIME: 
COMMENT: 
Num Peaks: 3
527.3868	400
509.376235	150
184.073321	999

NAME: LPC_d5 16:0
PRECURSORMZ: 501.3711
PRECURSORTYPE: [M+H]+
IONMODE: Positive
FORMULA: C24H45D5NO7P
SMILES: C([2H])([2H])(OC(CCCCCCCCCCCCCCC)=O)C([2H])(O)C([2H])([2H])OP([O-])(=O)OCC[N+](C)(C)C
INCHIKEY: ASWBNKHCZGQVJV-DCMLGZEASA-N
COMPOUNDCLASS: LPC_d5
RETENTIONTIME: 
COMMENT: 
Num Peaks: 3
501.37115	400
483.360585	150
184.073321	999

NAME: LPC_d5 18:1
PRECURSORMZ: 549.3687
PRECURSORTYPE: [M+Na]+
IONMODE: Positive
FORMULA: C26H47D5NO7P
SMILES: C([2H])([2H])(OC(CCCCCCC/C=C\CCCCCCCC)=O)C([2H])(O)C([2H])([2H])OP([O-])(=O)OCC[N+](C)(C)C
INCHIKEY: YAMUFBLWGFFICM-XZBYATMBSA-N
COMPOUNDCLASS: LPC_d5
RETENTIONTIME: 
COMMENT: 
Num Peaks: 5
549.368744	200
490.295245	999
344.320755	100
104.10699	200
86.096426	100

NAME: LPC_d5 16:0
PRECURSORMZ: 523.3531
PRECURSORTYPE: [M+Na]+
IONMODE: Positive
FORMULA: C24H45D5NO7P
SMILES: C([2H])([2H])(OC(CCCCCCCCCCCCCCC)=O)C([2H])(O)C([2H])([2H])OP([O-])(=O)OCC[N+](C)(C)C
INCHIKEY: ASWBNKHCZGQVJV-DCMLGZEASA-N
COMPOUNDCLASS: LPC_d5
RETENTIONTIME: 
COMMENT: 
Num Peaks: 5
523.353094	200
464.279595	999
318.305105	100
104.10699	200
86.096426	100

NAME: LPC 18:1
PRECURSORMZ: 566.346342486
PRECURSORTYPE: [M+HCOO]-
IONMODE: Negative
FORMULA: C26H52NO7P
SMILES: O=C(OCC(O)COP(=O)([O-])OCC[N+](C)(C)C)CCCCCCCC=CCCCCCCCC
INCHIKEY: YAMUFBLWGFFICM-UHFFFAOYSA-N
COMPOUNDCLASS: LPC
RETENTIONTIME: 
COMMENT: 
Num Peaks: 4
566.346342	10
506.325213	400
281.248604	999
224.069333	100

NAME: LPC 18:1
PRECURSORMZ: 580.361992551
PRECURSORTYPE: [M+CH3COO]-
IONMODE: Negative
FORMULA: C26H52NO7P
SMILES: O=C(OCC(O)COP(=O)([O-])OCC[N+](C)(C)C)CCCCCCCC=CCCCCCCCC
INCHIKEY: YAMUFBLWGFFICM-UHFFFAOYSA-N
COMPOUNDCLASS: LPC
RETENTIONTIME: 
COMMENT: 
Num Peaks: 4
580.361993	10
506.325213	400
281.248604	999
224.069333	100

NAME: LPC 18:1
PRECURSORMZ: 582.341257105
PRECURSORTYPE: [M+HCO3]-
IONMODE: Negative
FORMULA: C26H52NO7P
SMILES: O=C(OCC(O)COP(=O)([O-])OCC[N+](C)(C)C)CCCCCCCC=CCCCCCCCC
INCHIKEY: YAMUFBLWGFFICM-UHFFFAOYSA-N
COMPOUNDCLASS: LPC
RETENTIONTIME: 
COMMENT: 
Num Peaks: 6
582.341257	200
520.340863	100
461.267364	200
451.246628	300
435.251714	999
281.248604	50

NAME: LPC 18:1
PRECURSORMZ: 522.3554160537
PRECURSORTYPE: [M+H]+
IONMODE: Positive
FORMULA: C26H52NO7P
SMILES: O=C(OCC(O)COP(=O)([O-])OCC[N+](C)(C)C)CCCCCCCC=CCCCCCCCC
INCHIKEY: YAMUFBLWGFFICM-UHFFFAOYSA-N
COMPOUNDCLASS: LPC
RETENTIONTIME: 
COMMENT: 
Num Peaks: 3
522.355416	400
504.344851	150
184.073321	999

NAME: LPC 18:1
PRECURSORMZ: 544.337360334
PRECURSORTYPE: [M+Na]+
IONMODE: Positive
FORMULA: C26H52NO7P
SMILES: O=C(OCC(O)COP(=O)([O-])OCC[N+](C)(C)C)CCCCCCCC=CCCCCCCCC
INCHIKEY: YAMUFBLWGFFICM-UHFFFAOYSA-N
COMPOUNDCLASS: LPC
RETENTIONTIME: 
COMMENT: 
Num Peaks: 5
544.33736	200
485.263861	999
339.289371	100
104.10699	200
86.096426	100

NAME: LPE_d5 18:1
PRECURSORMZ: 483.3253
PRECURSORTYPE: [M-H]-
IONMODE: Negative
FORMULA: C23H41D5NO7P
SMILES: C([2H])([2H])(OC(CCCCCCC/C=C\CCCCCCCC)=O)C([2H])(O)C([2H])([2H])OP(O)(=O)OCCN
INCHIKEY: PYVRVRFVLRNJLY-OAUQKNLPSA-N
COMPOUNDCLASS: LPE_d5
RETENTIONTIME: 
COMMENT: 
Num Peaks: 6
483.325297	200
281.248604	999
219.079981	100
201.069416	100
196.038033	100
78.959054	50

NAME: LPE_d5 16:0
PRECURSORMZ: 457.3096
PRECURSORTYPE: [M-H]-
IONMODE: Negative
FORMULA: C21H39D5NO7P
SMILES: C([2H])([2H])(OC(CCCCCCCCCCCCCCC)=O)C([2H])(O)C([2H])([2H])OP(O)(=O)OCCN
INCHIKEY: YVYMBNSKXOXSKW-UITAJUKKSA-N
COMPOUNDCLASS: LPE_d5
RETENTIONTIME: 
COMMENT: 
Num Peaks: 6
457.309647	200
255.232954	999
219.079981	100
201.069416	100
196.038033	100
78.959054	50

NAME: LPE_d5 18:1
PRECURSORMZ: 485.3398
PRECURSORTYPE: [M+H]+
IONMODE: Positive
FORMULA: C23H41D5NO7P
SMILES: C([2H])([2H])(OC(CCCCCCC/C=C\CCCCCCCC)=O)C([2H])(O)C([2H])([2H])OP(O)(=O)OCCN
INCHIKEY: PYVRVRFVLRNJLY-OAUQKNLPSA-N
COMPOUNDCLASS: LPE_d5
RETENTIONTIME: 
COMMENT: 
Num Peaks: 2
485.33985	10
344.320755	999

NAME: LPE_d5 16:0
PRECURSORMZ: 459.3242
PRECURSORTYPE: [M+H]+
IONMODE: Positive
FORMULA: C21H39D5NO7P
SMILES: C([2H])([2H])(OC(CCCCCCCCCCCCCCC)=O)C([2H])(O)C([2H])([2H])OP(O)(=O)OCCN
INCHIKEY: YVYMBNSKXOXSKW-UITAJUKKSA-N
COMPOUNDCLASS: LPE_d5
RETENTIONTIME: 
COMMENT: 
Num Peaks: 2
459.3242	10
318.305105	999

NAME: LPE 18:1
PRECURSORMZ: 478.2939130223
PRECURSORTYPE: [M-H]-
IONMODE: Negative
FORMULA: C23H46NO7P
SMILES: O=C(OCC(O)COP(=O)(O)OCCN)CCCCCCCC=CCCCCCCCC
INCHIKEY: PYVRVRFVLRNJLY-UHFFFAOYSA-N
COMPOUNDCLASS: LPE
RETENTIONTIME: 
COMMENT: 
Num Peaks: 6
478.293913	200
281.248604	999
214.048597	100
196.038033	100
196.038033	100
78.959054	50

NAME: LPE 18:1
PRECURSORMZ: 480.3084658617
PRECURSORTYPE: [M+H]+
IONMODE: Positive
FORMULA: C23H46NO7P
SMILES: O=C(OCC(O)COP(=O)(O)OCCN)CCCCCCCC=CCCCCCCCC
INCHIKEY: PYVRVRFVLRNJLY-UHFFFAOYSA-N
COMPOUNDCLASS: LPE
RETENTIONTIME: 
COMMENT: 
Num Peaks: 2
480.308466	10
339.289371	999

NAME: LPG_d5 18:1
PRECURSORMZ: 514.3199
PRECURSORTYPE: [M-H]-
IONMODE: Negative
FORMULA: C24H42D5O9P
SMILES: C(O)(CO)COP(O)(=O)OC([2H])([2H])C(O)([2H])C(OC(CCCCCCC/C=C\CCCCCCCC)=O)([2H])[2H]
INCHIKEY: FQQQKGAFQIIGLQ-GOIQROCCSA-N
COMPOUNDCLASS: LPG_d5
RETENTIONTIME: 
COMMENT: 
Num Peaks: 5
514.319877	300
281.248604	999
250.074561	100
232.063997	100
152.995834	150

NAME: LPG_d5 16:0
PRECURSORMZ: 488.3042
PRECURSORTYPE: [M-H]-
IONMODE: Negative
FORMULA: C22H40D5O9P
SMILES: C(O)(CO)COP(O)(=O)OC([2H])([2H])C(O)([2H])C(OC(CCCCCCCCCCCCCCC)=O)([2H])[2H]
INCHIKEY: BVJSKAUUFXBDOB-CUBURGSSSA-N
COMPOUNDCLASS: LPG_d5
RETENTIONTIME: 
COMMENT: 
Num Peaks: 5
488.304227	300
255.232954	999
250.074561	100
232.063997	100
152.995834	150

NAME: LPG_d5 18:1
PRECURSORMZ: 516.3344
PRECURSORTYPE: [M+H]+
IONMODE: Positive
FORMULA: C24H42D5O9P
SMILES: C(O)(CO)COP(O)(=O)OC([2H])([2H])C(O)([2H])C(OC(CCCCCCC/C=C\CCCCCCCC)=O)([2H])[2H]
INCHIKEY: FQQQKGAFQIIGLQ-GOIQROCCSA-N
COMPOUNDCLASS: LPG_d5
RETENTIONTIME: 
COMMENT: 
Num Peaks: 4
516.33443	5
498.323865	5
480.3133	20
344.320755	999

NAME: LPG_d5 16:0
PRECURSORMZ: 490.3188
PRECURSORTYPE: [M+H]+
IONMODE: Positive
FORMULA: C22H40D5O9P
SMILES: C(O)(CO)COP(O)(=O)OC([2H])([2H])C(O)([2H])C(OC(CCCCCCCCCCCCCCC)=O)([2H])[2H]
INCHIKEY: BVJSKAUUFXBDOB-CUBURGSSSA-N
COMPOUNDCLASS: LPG_d5
RETENTIONTIME: 
COMMENT: 
Num Peaks: 4
490.31878	5
472.308215	5
454.29765	20
318.305105	999

NAME: LPG_d5 18:1
PRECURSORMZ: 533.361
PRECURSORTYPE: [M+NH4]+
IONMODE: Positive
FORMULA: C24H42D5O9P
SMILES: C(O)(CO)COP(O)(=O)OC([2H])([2H])C(O)([2H])C(OC(CCCCCCC/C=C\CCCCCCCC)=O)([2H])[2H]
INCHIKEY: FQQQKGAFQIIGLQ-GOIQROCCSA-N
COMPOUNDCLASS: LPG_d5
RETENTIONTIME: 
COMMENT: 
Num Peaks: 5
533.360979	5
516.33443	5
498.323865	5
480.3133	20
344.320755	999

NAME: LPG_d5 16:0
PRECURSORMZ: 507.3453
PRECURSORTYPE: [M+NH4]+
IONMODE: Positive
FORMULA: C22H40D5O9P
SMILES: C(O)(CO)COP(O)(=O)OC([2H])([2H])C(O)([2H])C(OC(CCCCCCCCCCCCCCC)=O)([2H])[2H]
INCHIKEY: BVJSKAUUFXBDOB-CUBURGSSSA-N
COMPOUNDCLASS: LPG_d5
RETENTIONTIME: 
COMMENT: 
Num Peaks: 5
507.345329	5
490.31878	5
472.308215	5
454.29765	20
318.305105	999

NAME: LPG 18:1
PRECURSORMZ: 509.2884932943
PRECURSORTYPE: [M-H]-
IONMODE: Negative
FORMULA: C24H47O9P
SMILES: O=C(OCC(O)COP(=O)(O)OCC(O)CO)CCCCCCCC=CCCCCCCCC
INCHIKEY: FQQQKGAFQIIGLQ-UHFFFAOYSA-N
COMPOUNDCLASS: LPG
RETENTIONTIME: 
COMMENT: 
Num Peaks: 5
509.288493	300
281.248604	999
245.043178	100
227.032613	100
152.995834	150

NAME: LPG 18:1
PRECURSORMZ: 511.3030461337
PRECURSORTYPE: [M+H]+
IONMODE: Positive
FORMULA: C24H47O9P
SMILES: O=C(OCC(O)COP(=O)(O)OCC(O)CO)CCCCCCCC=CCCCCCCCC
INCHIKEY: FQQQKGAFQIIGLQ-UHFFFAOYSA-N
COMPOUNDCLASS: LPG
RETENTIONTIME: 
COMMENT: 
Num Peaks: 4
511.303046	5
493.292481	5
475.281917	20
339.289371	999

NAME: LPG 18:1
PRECURSORMZ: 528.329595267
PRECURSORTYPE: [M+NH4]+
IONMODE: Positive
FORMULA: C24H47O9P
SMILES: O=C(OCC(O)COP(=O)(O)OCC(O)CO)CCCCCCCC=CCCCCCCCC
INCHIKEY: FQQQKGAFQIIGLQ-UHFFFAOYSA-N
COMPOUNDCLASS: LPG
RETENTIONTIME: 
COMMENT: 
Num Peaks: 5
528.329595	5
511.303046	5
493.292481	5
475.281917	20
339.289371	999

NAME: LPI_d5 18:1
PRECURSORMZ: 602.3359
PRECURSORTYPE: [M-H]-
IONMODE: Negative
FORMULA: C27H46D5O12P
SMILES: C([2H])([2H])(OC(CCCCCCC/C=C\CCCCCCCC)=O)C([2H])(O)C([2H])([2H])OP(O)(=O)OC1C(O)C(O)C(O)C(O)C1O
INCHIKEY: UGDOFRYHDCDVHD-FNKKQMTJSA-N
COMPOUNDCLASS: LPI_d5
RETENTIONTIME: 
COMMENT: 
Num Peaks: 6
602.335921	999
320.080041	450
281.248604	999
241.011878	300
152.995834	500
78.959054	50

NAME: LPI_d5 16:0
PRECURSORMZ: 576.3203
PRECURSORTYPE: [M-H]-
IONMODE: Negative
FORMULA: C25H44D5O12P
SMILES: C([2H])([2H])(OC(CCCCCCCCCCCCCCC)=O)C([2H])(O)C([2H])([2H])OP(O)(=O)OC1C(O)C(O)C(O)C(O)C1O
INCHIKEY: UOXRPRZMAROFPH-XBHHEOLKSA-N
COMPOUNDCLASS: LPI_d5
RETENTIONTIME: 
COMMENT: 
Num Peaks: 6
576.320271	999
320.080041	450
255.232954	999
241.011878	300
152.995834	500
78.959054	50

NAME: LPI_d5 18:1
PRECURSORMZ: 604.3505
PRECURSORTYPE: [M+H]+
IONMODE: Positive
FORMULA: C27H46D5O12P
SMILES: C([2H])([2H])(OC(CCCCCCC/C=C\CCCCCCCC)=O)C([2H])(O)C([2H])([2H])OP(O)(=O)OC1C(O)C(O)C(O)C(O)C1O
INCHIKEY: UGDOFRYHDCDVHD-FNKKQMTJSA-N
COMPOUNDCLASS: LPI_d5
RETENTIONTIME: 
COMMENT: 
Num Peaks: 4
604.350474	5
586.339909	5
424.287086	100
344.320755	999

NAME: LPI_d5 16:0
PRECURSORMZ: 578.3348
PRECURSORTYPE: [M+H]+
IONMODE: Positive
FORMULA: C25H44D5O12P
SMILES: C([2H])([2H])(OC(CCCCCCCCCCCCCCC)=O)C([2H])(O)C([2H])([2H])OP(O)(=O)OC1C(O)C(O)C(O)C(O)C1O
INCHIKEY: UOXRPRZMAROFPH-XBHHEOLKSA-N
COMPOUNDCLASS: LPI_d5
RETENTIONTIME: 
COMMENT: 
Num Peaks: 4
578.334824	5
560.324259	5
398.271436	100
318.305105	999

NAME: LPI_d5 18:1
PRECURSORMZ: 621.377
PRECURSORTYPE: [M+NH4]+
IONMODE: Positive
FORMULA: C27H46D5O12P
SMILES: C([2H])([2H])(OC(CCCCCCC/C=C\CCCCCCCC)=O)C([2H])(O)C([2H])([2H])OP(O)(=O)OC1C(O)C(O)C(O)C(O)C1O
INCHIKEY: UGDOFRYHDCDVHD-FNKKQMTJSA-N
COMPOUNDCLASS: LPI_d5
RETENTIONTIME: 
COMMENT: 
Num Peaks: 5
621.377023	5
604.350474	5
586.339909	5
424.287086	100
344.320755	999

NAME: LPI_d5 16:0
PRECURSORMZ: 595.3614
PRECURSORTYPE: [M+NH4]+
IONMODE: Positive
FORMULA: C25H44D5O12P
SMILES: C([2H])([2H])(OC(CCCCCCCCCCCCCCC)=O)C([2H])(O)C([2H])([2H])OP(O)(=O)OC1C(O)C(O)C(O)C(O)C1O
INCHIKEY: UOXRPRZMAROFPH-XBHHEOLKSA-N
COMPOUNDCLASS: LPI_d5
RETENTIONTIME: 
COMMENT: 
Num Peaks: 5
595.361373	5
578.334824	5
560.324259	5
398.271436	100
318.305105	999

NAME: LPI 18:1
PRECURSORMZ: 597.3045372823
PRECURSORTYPE: [M-H]-
IONMODE: Negative
FORMULA: C27H51O12P
SMILES: O=C(OCC(O)COP(=O)(O)OC1C(O)C(O)C(O)C(O)C1O)CCCCCCCC=CCCCCCCCC
INCHIKEY: UGDOFRYHDCDVHD-UHFFFAOYSA-N
COMPOUNDCLASS: LPI
RETENTIONTIME: 
COMMENT: 
Num Peaks: 6
597.304537	999
315.048657	450
281.248604	999
241.011878	300
152.995834	500
78.959054	50

NAME: LPI 18:1
PRECURSORMZ: 599.3190901217
PRECURSORTYPE: [M+H]+
IONMODE: Positive
FORMULA: C27H51O12P
SMILES: O=C(OCC(O)COP(=O)(O)OC1C(O)C(O)C(O)C(O)C1O)CCCCCCCC=CCCCCCCCC
INCHIKEY: UGDOFRYHDCDVHD-UHFFFAOYSA-N
COMPOUNDCLASS: LPI
RETENTIONTIME: 
COMMENT: 
Num Peaks: 4
599.31909	5
581.308525	5
419.255702	100
339.289371	999

NAME: LPI 18:1
PRECURSORMZ: 616.345639255
PRECURSORTYPE: [M+NH4]+
IONMODE: Positive
FORMULA: C27H51O12P
SMILES: O=C(OCC(O)COP(=O)(O)OC1C(O)C(O)C(O)C(O)C1O)CCCCCCCC=CCCCCCCCC
INCHIKEY: UGDOFRYHDCDVHD-UHFFFAOYSA-N
COMPOUNDCLASS: LPI
RETENTIONTIME: 
COMMENT: 
Num Peaks: 5
616.345639	5
599.31909	5
581.308525	5
419.255702	100
339.289371	999

NAME: LPS_d5 18:1
PRECURSORMZ: 527.3151
PRECURSORTYPE: [M-H]-
IONMODE: Negative
FORMULA: C24H41D5NO9P
SMILES: C(N)(COP(O)(=O)OC([2H])([2H])C(O)([2H])C([2H])([2H])OC(CCCCCCC/C=C\CCCCCCCC)=O)C(O)=O
INCHIKEY: JZWNYZVVZXZRRH-XACXNDHXSA-N
COMPOUNDCLASS: LPS_d5
RETENTIONTIME: 
COMMENT: 
Num Peaks: 5
527.315126	10
440.283098	500
281.248604	200
152.995834	999
78.959054	500

NAME: LPS_d5 16:0
PRECURSORMZ: 501.2995
PRECURSORTYPE: [M-H]-
IONMODE: Negative
FORMULA: C22H39D5NO9P
SMILES: C(N)(COP(O)(=O)OC([2H])([2H])C(O)([2H])C([2H])([2H])OC(CCCCCCCCCCCCCCC)=O)C(O)=O
INCHIKEY: XIVOBOJQPNEUSC-UOMOFSHISA-N
COMPOUNDCLASS: LPS_d5
RETENTIONTIME: 
COMMENT: 
Num Peaks: 5
501.299476	10
414.267448	500
255.232954	200
152.995834	999
78.959054	500

NAME: LPS_d5 18:1
PRECURSORMZ: 529.3297
PRECURSORTYPE: [M+H]+
IONMODE: Positive
FORMULA: C24H41D5NO9P
SMILES: C(N)(COP(O)(=O)OC([2H])([2H])C(O)([2H])C([2H])([2H])OC(CCCCCCC/C=C\CCCCCCCC)=O)C(O)=O
INCHIKEY: JZWNYZVVZXZRRH-XACXNDHXSA-N
COMPOUNDCLASS: LPS_d5
RETENTIONTIME: 
COMMENT: 
Num Peaks: 4
529.329679	5
511.319114	10
424.287086	150
344.320755	999

NAME: LPS_d5 16:0
PRECURSORMZ: 503.314
PRECURSORTYPE: [M+H]+
IONMODE: Positive
FORMULA: C22H39D5NO9P
SMILES: C(N)(COP(O)(=O)OC([2H])([2H])C(O)([2H])C([2H])([2H])OC(CCCCCCCCCCCCCCC)=O)C(O)=O
INCHIKEY: XIVOBOJQPNEUSC-UOMOFSHISA-N
COMPOUNDCLASS: LPS_d5
RETENTIONTIME: 
COMMENT: 
Num Peaks: 4
503.314029	5
485.303464	10
398.271436	150
318.305105	999

NAME: LPS 18:1
PRECURSORMZ: 522.2837422623
PRECURSORTYPE: [M-H]-
IONMODE: Negative
FORMULA: C24H46NO9P
SMILES: O=C(OCC(O)COP(=O)(O)OCC(N)C(=O)O)CCCCCCCC=CCCCCCCCC
INCHIKEY: JZWNYZVVZXZRRH-UHFFFAOYSA-N
COMPOUNDCLASS: LPS
RETENTIONTIME: 
COMMENT: 
Num Peaks: 5
522.283742	10
435.251714	500
281.248604	200
152.995834	999
78.959054	500

NAME: LPS 18:1
PRECURSORMZ: 524.2982951017
PRECURSORTYPE: [M+H]+
IONMODE: Positive
FORMULA: C24H46NO9P
SMILES: O=C(OCC(O)COP(=O)(O)OCC(N)C(=O)O)CCCCCCCC=CCCCCCCCC
INCHIKEY: JZWNYZVVZXZRRH-UHFFFAOYSA-N
COMPOUNDCLASS: LPS
RETENTIONTIME: 
COMMENT: 
Num Peaks: 4
524.298295	5
506.28773	10
419.255702	150
339.289371	999

NAME: MMPE 16:0_18:1
PRECURSORMZ: 730.5392286663
PRECURSORTYPE: [M-H]-
IONMODE: Negative
FORMULA: C40H78NO8P
SMILES: O=C(OCC(OC(=O)CCCCCCCC=CCCCCCCCC)COP(=O)(O)OCCNC)CCCCCCCCCCCCCCC
INCHIKEY: YAOJJIUXLIFZQN-UHFFFAOYSA-N
COMPOUNDCLASS: MMPE
RETENTIONTIME: 
COMMENT: 
Num Peaks: 9
730.539229	150
492.309563	10
474.298998	10
466.293913	10
448.283348	10
281.248604	999
255.232954	999
210.053683	10
154.027468	10

NAME: MMPE 16:0_18:1
PRECURSORMZ: 732.5537815057
PRECURSORTYPE: [M+H]+
IONMODE: Positive
FORMULA: C40H78NO8P
SMILES: O=C(OCC(OC(=O)CCCCCCCC=CCCCCCCCC)COP(=O)(O)OCCNC)CCCCCCCCCCCCCCC
INCHIKEY: YAOJJIUXLIFZQN-UHFFFAOYSA-N
COMPOUNDCLASS: MMPE
RETENTIONTIME: 
COMMENT: 
Num Peaks: 6
732.553782	10
577.519037	999
265.252592	50
247.242027	10
239.236942	50
221.226377	10

NAME: PC 18:1_16:0;O
PRECURSORMZ: 820.5709
PRECURSORTYPE: [M+HCOO]-
IONMODE: Negative
FORMULA: C42H82NO9P
SMILES: O=C(OCC(OC(=O)CCCCCCC(O)CCCCCCCC)COP(=O)([O-])OCC[N+](C)(C)C)CCCCCCCC=CCCCCCCCC
INCHIKEY: WSQULXZKIDHPHK-UHFFFAOYSA-N
COMPOUNDCLASS: OxPC
RETENTIONTIME: 
COMMENT: 
Num Peaks: 6
820.570923	200
760.549793	999
281.248604	600
271.227868	100
253.217304	100
224.069333	100

NAME: PC 16:0_18:1;O
PRECURSORMZ: 820.5709
PRECURSORTYPE: [M+HCOO]-
IONMODE: Negative
FORMULA: C42H82NO9P
SMILES: O=C(OCC(OC(=O)CCCCCCC(O)C=CCCCCCCCC)COP(=O)([O-])OCC[N+](C)(C)C)CCCCCCCCCCCCCCC
INCHIKEY: NLMRARSMSJYJFD-UHFFFAOYSA-N
COMPOUNDCLASS: OxPC
RETENTIONTIME: 
COMMENT: 
Num Peaks: 6
820.570923	200
760.549793	999
297.243519	100
279.232954	100
255.232954	600
224.069333	100

NAME: PC 18:1_16:0;O
PRECURSORMZ: 834.5866
PRECURSORTYPE: [M+CH3COO]-
IONMODE: Negative
FORMULA: C42H82NO9P
SMILES: O=C(OCC(OC(=O)CCCCCCC(O)CCCCCCCC)COP(=O)([O-])OCC[N+](C)(C)C)CCCCCCCC=CCCCCCCCC
INCHIKEY: WSQULXZKIDHPHK-UHFFFAOYSA-N
COMPOUNDCLASS: OxPC
RETENTIONTIME: 
COMMENT: 
Num Peaks: 6
834.586573	200
760.549793	999
281.248604	600
271.227868	100
253.217304	100
224.069333	100

NAME: PC 16:0_18:1;O
PRECURSORMZ: 834.5866
PRECURSORTYPE: [M+CH3COO]-
IONMODE: Negative
FORMULA: C42H82NO9P
SMILES: O=C(OCC(OC(=O)CCCCCCC(O)C=CCCCCCCCC)COP(=O)([O-])OCC[N+](C)(C)C)CCCCCCCCCCCCCCC
INCHIKEY: NLMRARSMSJYJFD-UHFFFAOYSA-N
COMPOUNDCLASS: OxPC
RETENTIONTIME: 
COMMENT: 
Num Peaks: 6
834.586573	200
760.549793	999
297.243519	100
279.232954	100
255.232954	600
224.069333	100

NAME: PE 18:1_16:0;O
PRECURSORMZ: 732.5185
PRECURSORTYPE: [M-H]-
IONMODE: Negative
FORMULA: C39H76NO9P
SMILES: O=C(OCC(OC(=O)CCCCCCC(O)CCCCCCCC)COP(=O)(O)OCCN)CCCCCCCC=CCCCCCCCC
INCHIKEY: FFCIAZHUTFUEJL-UHFFFAOYSA-N
COMPOUNDCLASS: OxPE
RETENTIONTIME: 
COMMENT: 
Num Peaks: 5
732.518493	700
281.248604	999
271.227868	100
253.217304	100
196.038033	100

NAME: PE 16:0_18:1;O
PRECURSORMZ: 732.5185
PRECURSORTYPE: [M-H]-
IONMODE: Negative
FORMULA: C39H76NO9P
SMILES: O=C(OCC(OC(=O)CCCCCCC(O)C=CCCCCCCCC)COP(=O)(O)OCCN)CCCCCCCCCCCCCCC
INCHIKEY: NACKLRYIWGUPOP-UHFFFAOYSA-N
COMPOUNDCLASS: OxPE
RETENTIONTIME: 
COMMENT: 
Num Peaks: 5
732.518493	700
297.243519	100
279.232954	100
255.232954	999
196.038033	100

NAME: PG 18:1_16:0;O
PRECURSORMZ: 763.5131
PRECURSORTYPE: [M-H]-
IONMODE: Negative
FORMULA: C40H77O11P
SMILES: O=C(OCC(OC(=O)CCCCCCC(O)CCCCCCCC)COP(=O)(O)OCC(O)CO)CCCCCCCC=CCCCCCCCC
INCHIKEY: GYYBBHLVKSOYOR-UHFFFAOYSA-N
COMPOUNDCLASS: OxPG
RETENTIONTIME: 
COMMENT: 
Num Peaks: 4
763.513073	500
281.248604	999
271.227868	100
253.217304	100

NAME: PG 16:0_18:1;O
PRECURSORMZ: 763.5131
PRECURSORTYPE: [M-H]-
IONMODE: Negative
FORMULA: C40H77O11P
SMILES: O=C(OCC(OC(=O)CCCCCCC(O)C=CCCCCCCCC)COP(=O)(O)OCC(O)CO)CCCCCCCCCCCCCCC
INCHIKEY: VSMQAQBJDUKBCI-UHFFFAOYSA-N
COMPOUNDCLASS: OxPG
RETENTIONTIME: 
COMMENT: 
Num Peaks: 4
763.513073	500
297.243519	100
279.232954	100
255.232954	999

NAME: PI 18:1_16:0;O
PRECURSORMZ: 851.5291
PRECURSORTYPE: [M-H]-
IONMODE: Negative
FORMULA: C43H81O14P
SMILES: O=C(OCC(OC(=O)CCCCCCC(O)CCCCCCCC)COP(=O)(O)OC1C(O)C(O)C(O)C(O)C1O)CCCCCCCC=CCCCCCCCC
INCHIKEY: CFTXMXNYSKMBRZ-UHFFFAOYSA-N
COMPOUNDCLASS: OxPI
RETENTIONTIME: 
COMMENT: 
Num Peaks: 6
851.529117	999
297.038092	200
281.248604	200
271.227868	200
253.217304	50
241.011877	200

NAME: PI 16:0_18:1;O
PRECURSORMZ: 851.5291
PRECURSORTYPE: [M-H]-
IONMODE: Negative
FORMULA: C43H81O14P
SMILES: O=C(OCC(OC(=O)CCCCCCC(O)C=CCCCCCCCC)COP(=O)(O)OC1C(O)C(O)C(O)C(O)C1O)CCCCCCCCCCCCCCC
INCHIKEY: MVBPABXXVYHHAY-UHFFFAOYSA-N
COMPOUNDCLASS: OxPI
RETENTIONTIME: 
COMMENT: 
Num Peaks: 6
851.529117	999
297.243519	200
297.038092	200
279.232954	50
255.232954	200
241.011877	200

NAME: PS 18:1_16:0;O
PRECURSORMZ: 776.5083
PRECURSORTYPE: [M-H]-
IONMODE: Negative
FORMULA: C40H76NO11P
SMILES: O=C(OCC(OC(=O)CCCCCCC(O)CCCCCCCC)COP(=O)(O)OCC(N)C(=O)O)CCCCCCCC=CCCCCCCCC
INCHIKEY: IDADPLRMTCXTHE-UHFFFAOYSA-N
COMPOUNDCLASS: OxPS
RETENTIONTIME: 
COMMENT: 
Num Peaks: 5
776.508322	500
689.476294	600
281.248604	999
271.227868	100
253.217304	100

NAME: PS 16:0_18:1;O
PRECURSORMZ: 776.5083
PRECURSORTYPE: [M-H]-
IONMODE: Negative
FORMULA: C40H76NO11P
SMILES: O=C(OCC(OC(=O)CCCCCCC(O)C=CCCCCCCCC)COP(=O)(O)OCC(N)C(=O)O)CCCCCCCCCCCCCCC
INCHIKEY: KDKYBQGEUDLAQQ-UHFFFAOYSA-N
COMPOUNDCLASS: OxPS
RETENTIONTIME: 
COMMENT: 
Num Peaks: 5
776.508322	500
689.476294	600
297.243519	100
279.232954	100
255.232954	999

NAME: PA 16:0_18:1
PRECURSORMZ: 673.4813794423
PRECURSORTYPE: [M-H]-
IONMODE: Negative
FORMULA: C37H71O8P
SMILES: O=C(OCC(OC(=O)CCCCCCCC=CCCCCCCCC)COP(=O)(O)O)CCCCCCCCCCCCCCC
INCHIKEY: OPVZUEPSMJNLOM-UHFFFAOYSA-N
COMPOUNDCLASS: PA
RETENTIONTIME: 
COMMENT: 
Num Peaks: 8
673.481379	400
435.251714	100
417.241149	100
409.236064	100
391.225499	100
281.248604	999
255.232954	999
152.995834	300

NAME: PC_d5 16:0_18:1
PRECURSORMZ: 809.6074
PRECURSORTYPE: [M+HCOO]-
IONMODE: Negative
FORMULA: C42H77D5NO8P
SMILES: C([2H])([2H])(OC(CCCCCCCCCCCCCCC)=O)C([2H])(OC(CCCCCCC/C=C\CCCCCCCC)=O)C([2H])([2H])OP([O-])(=O)OCC[N+](C)(C)C
INCHIKEY: WTJKGGKOPKCXLL-DUEIFOHJSA-N
COMPOUNDCLASS: PC_d5
RETENTIONTIME: 
COMMENT: 
Num Peaks: 9
809.607392	200
749.586262	999
511.356597	50
493.346032	50
485.340947	50
467.330382	50
281.248604	600
255.232954	600
224.069333	100

NAME: PC_d5 16:0_18:1
PRECURSORMZ: 823.623
PRECURSORTYPE: [M+CH3COO]-
IONMODE: Negative
FORMULA: C42H77D5NO8P
SMILES: C([2H])([2H])(OC(CCCCCCCCCCCCCCC)=O)C([2H])(OC(CCCCCCC/C=C\CCCCCCCC)=O)C([2H])([2H])OP([O-])(=O)OCC[N+](C)(C)C
INCHIKEY: WTJKGGKOPKCXLL-DUEIFOHJSA-N
COMPOUNDCLASS: PC_d5
RETENTIONTIME: 
COMMENT: 
Num Peaks: 9
823.623042	200
749.586262	999
511.356597	50
493.346032	50
485.340947	50
467.330382	50
281.248604	600
255.232954	600
224.069333	100

NAME: PC_d5 16:0_18:1
PRECURSORMZ: 765.6165
PRECURSORTYPE: [M+H]+
IONMODE: Positive
FORMULA: C42H77D5NO8P
SMILES: C([2H])([2H])(OC(CCCCCCCCCCCCCCC)=O)C([2H])(OC(CCCCCCC/C=C\CCCCCCCC)=O)C([2H])([2H])OP([O-])(=O)OCC[N+](C)(C)C
INCHIKEY: WTJKGGKOPKCXLL-DUEIFOHJSA-N
COMPOUNDCLASS: PC_d5
RETENTIONTIME: 
COMMENT: 
Num Peaks: 6
765.616465	300
527.3868	50
509.376235	50
501.37115	50
483.360585	50
184.073321	999

NAME: PC_d5 36:2
PRECURSORMZ: 813.6141
PRECURSORTYPE: [M+Na]+
IONMODE: Positive
FORMULA: C44H79D5NO8P
SMILES: C([2H])([2H])(OC(CCCCCCC/C=C\CCCCCCCC)=O)C([2H])(OC(CCCCCCC/C=C\CCCCCCCC)=O)C([2H])([2H])OP([O-])(=O)OCC[N+](C)(C)C
INCHIKEY: SNKAWJBJQDLSFF-FJLKORBGSA-N
COMPOUNDCLASS: PC_d5
RETENTIONTIME: 
COMMENT: 
Num Peaks: 6
813.61406	999
754.54056	500
630.548015	600
608.566071	400
146.981766	400
86.096426	100

NAME: PC_d5 34:1
PRECURSORMZ: 787.5984
PRECURSORTYPE: [M+Na]+
IONMODE: Positive
FORMULA: C42H77D5NO8P
SMILES: C([2H])([2H])(OC(CCCCCCCCCCCCCCC)=O)C([2H])(OC(CCCCCCC/C=C\CCCCCCCC)=O)C([2H])([2H])OP([O-])(=O)OCC[N+](C)(C)C
INCHIKEY: WTJKGGKOPKCXLL-DUEIFOHJSA-N
COMPOUNDCLASS: PC_d5
RETENTIONTIME: 
COMMENT: 
Num Peaks: 6
787.59841	999
728.52491	500
604.532365	600
582.550421	400
146.981766	400
86.096426	100

NAME: PC_d5 32:0
PRECURSORMZ: 761.5828
PRECURSORTYPE: [M+Na]+
IONMODE: Positive
FORMULA: C40H75D5NO8P
SMILES: C([2H])([2H])(OC(CCCCCCCCCCCCCCC)=O)C([2H])(OC(CCCCCCCCCCCCCCC)=O)C([2H])([2H])OP([O-])(=O)OCC[N+](C)(C)C
INCHIKEY: KILNVBDSWZSGLL-QQRLDLFKSA-N
COMPOUNDCLASS: PC_d5
RETENTIONTIME: 
COMMENT: 
Num Peaks: 6
761.58276	999
702.50926	500
578.516715	600
556.534771	400
146.981766	400
86.096426	100

NAME: PC 16:0_18:1
PRECURSORMZ: 804.576008066
PRECURSORTYPE: [M+HCOO]-
IONMODE: Negative
FORMULA: C42H82NO8P
SMILES: O=C(OCC(OC(=O)CCCCCCCC=CCCCCCCCC)COP(=O)([O-])OCC[N+](C)(C)C)CCCCCCCCCCCCCCC
INCHIKEY: WTJKGGKOPKCXLL-UHFFFAOYSA-N
COMPOUNDCLASS: PC
RETENTIONTIME: 
COMMENT: 
Num Peaks: 9
804.576008	200
744.554879	999
506.325213	50
488.314648	50
480.309563	50
462.298998	50
281.248604	600
255.232954	600
224.069333	100

NAME: PC 16:0_18:1
PRECURSORMZ: 818.591658131
PRECURSORTYPE: [M+CH3COO]-
IONMODE: Negative
FORMULA: C42H82NO8P
SMILES: O=C(OCC(OC(=O)CCCCCCCC=CCCCCCCCC)COP(=O)([O-])OCC[N+](C)(C)C)CCCCCCCCCCCCCCC
INCHIKEY: WTJKGGKOPKCXLL-UHFFFAOYSA-N
COMPOUNDCLASS: PC
RETENTIONTIME: 
COMMENT: 
Num Peaks: 9
818.591658	200
744.554879	999
506.325213	50
488.314648	50
480.309563	50
462.298998	50
281.248604	600
255.232954	600
224.069333	100

NAME: PC 16:0_18:1
PRECURSORMZ: 760.5850816337
PRECURSORTYPE: [M+H]+
IONMODE: Positive
FORMULA: C42H82NO8P
SMILES: O=C(OCC(OC(=O)CCCCCCCC=CCCCCCCCC)COP(=O)([O-])OCC[N+](C)(C)C)CCCCCCCCCCCCCCC
INCHIKEY: WTJKGGKOPKCXLL-UHFFFAOYSA-N
COMPOUNDCLASS: PC
RETENTIONTIME: 
COMMENT: 
Num Peaks: 6
760.585082	300
522.355416	50
504.344851	50
496.339766	50
478.329201	50
184.073321	999

NAME: PC 36:2
PRECURSORMZ: 808.582675978
PRECURSORTYPE: [M+Na]+
IONMODE: Positive
FORMULA: C44H84NO8P
SMILES: O=C(OCC(OC(=O)CCCCCCCC=CCCCCCCCC)COP(=O)([O-])OCC[N+](C)(C)C)CCCCCCCC=CCCCCCCCC
INCHIKEY: SNKAWJBJQDLSFF-UHFFFAOYSA-N
COMPOUNDCLASS: PC
RETENTIONTIME: 
COMMENT: 
Num Peaks: 6
808.582676	999
749.509177	500
625.516631	600
603.534687	400
146.981766	400
86.096426	100

NAME: PC 34:1
PRECURSORMZ: 782.567025914
PRECURSORTYPE: [M+Na]+
IONMODE: Positive
FORMULA: C42H82NO8P
SMILES: O=C(OCC(OC(=O)CCCCCCCC=CCCCCCCCC)COP(=O)([O-])OCC[N+](C)(C)C)CCCCCCCCCCCCCCC
INCHIKEY: WTJKGGKOPKCXLL-UHFFFAOYSA-N
COMPOUNDCLASS: PC
RETENTIONTIME: 
COMMENT: 
Num Peaks: 6
782.567026	999
723.493527	500
599.500981	600
577.519037	400
146.981766	400
86.096426	100

NAME: PC 32:0
PRECURSORMZ: 756.55137585
PRECURSORTYPE: [M+Na]+
IONMODE: Positive
FORMULA: C40H80NO8P
SMILES: O=C(OCC(OC(=O)CCCCCCCCCCCCCCC)COP(=O)([O-])OCC[N+](C)(C)C)CCCCCCCCCCCCCCC
INCHIKEY: KILNVBDSWZSGLL-UHFFFAOYSA-N
COMPOUNDCLASS: PC
RETENTIONTIME: 
COMMENT: 
Num Peaks: 6
756.551376	999
697.477877	500
573.485331	600
551.503387	400
146.981766	400
86.096426	100

NAME: PEtOH 16:0_18:1
PRECURSORMZ: 701.5126795703
PRECURSORTYPE: [M-H]-
IONMODE: Negative
FORMULA: C39H75O8P
SMILES: O=C(OCC(OC(=O)CCCCCCCC=CCCCCCCCC)COP(=O)(O)OCC)CCCCCCCCCCCCCCC
INCHIKEY: JCABVIFDXFFRMT-UHFFFAOYSA-N
COMPOUNDCLASS: PEtOH
RETENTIONTIME: 
COMMENT: 
Num Peaks: 7
701.51268	150
463.283014	50
437.267364	50
281.248604	999
255.232954	999
181.027134	10
125.000919	10

NAME: PEtOH 16:0_18:1
PRECURSORMZ: 720.553781543
PRECURSORTYPE: [M+NH4]+
IONMODE: Positive
FORMULA: C39H75O8P
SMILES: O=C(OCC(OC(=O)CCCCCCCC=CCCCCCCCC)COP(=O)(O)OCC)CCCCCCCCCCCCCCC
INCHIKEY: JCABVIFDXFFRMT-UHFFFAOYSA-N
COMPOUNDCLASS: PEtOH
RETENTIONTIME: 
COMMENT: 
Num Peaks: 10
720.553782	1
577.519037	999
447.287002	30
421.271352	30
339.289371	60
313.273721	60
265.252592	120
239.236942	120
183.041687	60
127.015472	10

NAME: PE_d5 16:0_18:1
PRECURSORMZ: 721.555
PRECURSORTYPE: [M-H]-
IONMODE: Negative
FORMULA: C39H71D5NO8P
SMILES: C([2H])([2H])(OC(CCCCCCCCCCCCCCC)=O)C([2H])(OC(CCCCCCC/C=C\CCCCCCCC)=O)C([2H])([2H])OP(O)(=O)OCCN
INCHIKEY: FHQVHHIBKUMWTI-CXPLJYCVSA-N
COMPOUNDCLASS: PE_d5
RETENTIONTIME: 
COMMENT: 
Num Peaks: 8
721.554962	700
483.325297	50
465.314732	50
457.309647	50
439.299082	50
281.248604	999
255.232954	999
196.038033	100

NAME: PE_d5 16:0_18:1
PRECURSORMZ: 723.5695
PRECURSORTYPE: [M+H]+
IONMODE: Positive
FORMULA: C39H71D5NO8P
SMILES: C([2H])([2H])(OC(CCCCCCCCCCCCCCC)=O)C([2H])(OC(CCCCCCC/C=C\CCCCCCCC)=O)C([2H])([2H])OP(O)(=O)OCCN
INCHIKEY: FHQVHHIBKUMWTI-CXPLJYCVSA-N
COMPOUNDCLASS: PE_d5
RETENTIONTIME: 
COMMENT: 
Num Peaks: 4
723.569515	50
582.550421	999
265.252592	50
239.236942	50

NAME: PE_d5 36:2
PRECURSORMZ: 771.5671
PRECURSORTYPE: [M+Na]+
IONMODE: Positive
FORMULA: C41H73D5NO8P
SMILES: C([2H])([2H])(OC(CCCCCCC/C=C\CCCCCCCC)=O)C([2H])(OC(CCCCCCC/C=C\CCCCCCCC)=O)C([2H])([2H])OP(O)(=O)OCCN
INCHIKEY: MWRBNPKJOOWZPW-XUVGRTLJSA-N
COMPOUNDCLASS: PE_d5
RETENTIONTIME: 
COMMENT: 
Num Peaks: 5
771.56711	70
728.52491	400
630.548015	500
608.566071	999
164.008315	300

NAME: PE_d5 34:1
PRECURSORMZ: 745.5515
PRECURSORTYPE: [M+Na]+
IONMODE: Positive
FORMULA: C39H71D5NO8P
SMILES: C([2H])([2H])(OC(CCCCCCCCCCCCCCC)=O)C([2H])(OC(CCCCCCC/C=C\CCCCCCCC)=O)C([2H])([2H])OP(O)(=O)OCCN
INCHIKEY: FHQVHHIBKUMWTI-CXPLJYCVSA-N
COMPOUNDCLASS: PE_d5
RETENTIONTIME: 
COMMENT: 
Num Peaks: 5
745.551459	70
702.50926	400
604.532365	500
582.550421	999
164.008315	300

NAME: PE_d5 32:0
PRECURSORMZ: 719.5358
PRECURSORTYPE: [M+Na]+
IONMODE: Positive
FORMULA: C37H69D5NO8P
SMILES: C([2H])([2H])(OC(CCCCCCCCCCCCCCC)=O)C([2H])(OC(CCCCCCCCCCCCCCC)=O)C([2H])([2H])OP(O)(=O)OCCN
INCHIKEY: SLKDGVPOSSLUAI-WJZUKHFDSA-N
COMPOUNDCLASS: PE_d5
RETENTIONTIME: 
COMMENT: 
Num Peaks: 5
719.535809	70
676.49361	400
578.516715	500
556.534771	999
164.008315	300

NAME: PE 16:0_18:1
PRECURSORMZ: 716.5235786023
PRECURSORTYPE: [M-H]-
IONMODE: Negative
FORMULA: C39H76NO8P
SMILES: O=C(OCC(OC(=O)CCCCCCCC=CCCCCCCCC)COP(=O)(O)OCCN)CCCCCCCCCCCCCCC
INCHIKEY: FHQVHHIBKUMWTI-UHFFFAOYSA-N
COMPOUNDCLASS: PE
RETENTIONTIME: 
COMMENT: 
Num Peaks: 8
716.523579	700
478.293913	50
460.283348	50
452.278263	50
434.267698	50
281.248604	999
255.232954	999
196.038033	100

NAME: PE 16:0_18:1
PRECURSORMZ: 718.5381314417
PRECURSORTYPE: [M+H]+
IONMODE: Positive
FORMULA: C39H76NO8P
SMILES: O=C(OCC(OC(=O)CCCCCCCC=CCCCCCCCC)COP(=O)(O)OCCN)CCCCCCCCCCCCCCC
INCHIKEY: FHQVHHIBKUMWTI-UHFFFAOYSA-N
COMPOUNDCLASS: PE
RETENTIONTIME: 
COMMENT: 
Num Peaks: 4
718.538131	50
577.519037	999
265.252592	50
239.236942	50

NAME: PE 36:2
PRECURSORMZ: 766.535725786
PRECURSORTYPE: [M+Na]+
IONMODE: Positive
FORMULA: C41H78NO8P
SMILES: O=C(OCC(OC(=O)CCCCCCCC=CCCCCCCCC)COP(=O)(O)OCCN)CCCCCCCC=CCCCCCCCC
INCHIKEY: MWRBNPKJOOWZPW-UHFFFAOYSA-N
COMPOUNDCLASS: PE
RETENTIONTIME: 
COMMENT: 
Num Peaks: 5
766.535726	70
723.493527	400
625.516631	500
603.534687	999
164.008315	300

NAME: PE 34:1
PRECURSORMZ: 740.520075722
PRECURSORTYPE: [M+Na]+
IONMODE: Positive
FORMULA: C39H76NO8P
SMILES: O=C(OCC(OC(=O)CCCCCCCC=CCCCCCCCC)COP(=O)(O)OCCN)CCCCCCCCCCCCCCC
INCHIKEY: FHQVHHIBKUMWTI-UHFFFAOYSA-N
COMPOUNDCLASS: PE
RETENTIONTIME: 
COMMENT: 
Num Peaks: 5
740.520076	70
697.477877	400
599.500981	500
577.519037	999
164.008315	300

NAME: PE 32:0
PRECURSORMZ: 714.504425658
PRECURSORTYPE: [M+Na]+
IONMODE: Positive
FORMULA: C37H74NO8P
SMILES: O=C(OCC(OC(=O)CCCCCCCCCCCCCCC)COP(=O)(O)OCCN)CCCCCCCCCCCCCCC
INCHIKEY: SLKDGVPOSSLUAI-UHFFFAOYSA-N
COMPOUNDCLASS: PE
RETENTIONTIME: 
COMMENT: 
Num Peaks: 5
714.504426	70
671.462226	400
573.485331	500
551.503387	999
164.008315	300

NAME: PG_d5 16:0_18:1
PRECURSORMZ: 752.5495
PRECURSORTYPE: [M-H]-
IONMODE: Negative
FORMULA: C40H72D5O10P
SMILES: C(O)(CO)COP(O)(=O)OC([2H])([2H])C(OC(CCCCCCC/C=C\CCCCCCCC)=O)([2H])C(OC(CCCCCCCCCCCCCCC)=O)([2H])[2H]
INCHIKEY: PAZGBAOHGQRCBP-XKLVMDMZSA-N
COMPOUNDCLASS: PG_d5
RETENTIONTIME: 
COMMENT: 
Num Peaks: 7
752.549543	500
514.319877	100
496.309312	100
488.304227	100
470.293662	100
281.248604	999
255.232954	999

NAME: PG_d5 16:0_18:1
PRECURSORMZ: 771.5906
PRECURSORTYPE: [M+NH4]+
IONMODE: Positive
FORMULA: C40H72D5O10P
SMILES: C(O)(CO)COP(O)(=O)OC([2H])([2H])C(OC(CCCCCCC/C=C\CCCCCCCC)=O)([2H])C(OC(CCCCCCCCCCCCCCC)=O)([2H])[2H]
INCHIKEY: PAZGBAOHGQRCBP-XKLVMDMZSA-N
COMPOUNDCLASS: PG_d5
RETENTIONTIME: 
COMMENT: 
Num Peaks: 4
771.590645	50
582.550421	999
343.31293	50
317.29728	50

NAME: PG 16:0_18:1
PRECURSORMZ: 747.5181588743
PRECURSORTYPE: [M-H]-
IONMODE: Negative
FORMULA: C40H77O10P
SMILES: O=C(OCC(OC(=O)CCCCCCCC=CCCCCCCCC)COP(=O)(O)OCC(O)CO)CCCCCCCCCCCCCCC
INCHIKEY: PAZGBAOHGQRCBP-UHFFFAOYSA-N
COMPOUNDCLASS: PG
RETENTIONTIME: 
COMMENT: 
Num Peaks: 7
747.518159	500
509.288493	100
491.277929	100
483.272843	100
465.262279	100
281.248604	999
255.232954	999

NAME: PG 16:0_18:1
PRECURSORMZ: 766.559260847
PRECURSORTYPE: [M+NH4]+
IONMODE: Positive
FORMULA: C40H77O10P
SMILES: O=C(OCC(OC(=O)CCCCCCCC=CCCCCCCCC)COP(=O)(O)OCC(O)CO)CCCCCCCCCCCCCCC
INCHIKEY: PAZGBAOHGQRCBP-UHFFFAOYSA-N
COMPOUNDCLASS: PG
RETENTIONTIME: 
COMMENT: 
Num Peaks: 4
766.559261	50
577.519037	999
339.289371	50
313.273721	50

NAME: PI_d5 16:0_18:1
PRECURSORMZ: 840.5656
PRECURSORTYPE: [M-H]-
IONMODE: Negative
FORMULA: C43H76D5O13P
SMILES: C([2H])([2H])(OC(CCCCCCCCCCCCCCC)=O)C([2H])(OC(CCCCCCC/C=C\CCCCCCCC)=O)C([2H])([2H])OP(O)(=O)OC1C(O)C(O)C(O)C(O)C1O
INCHIKEY: PDLAMJKMOKWLAJ-BWCYHSMVSA-N
COMPOUNDCLASS: PI_d5
RETENTIONTIME: 
COMMENT: 
Num Peaks: 9
840.565587	999
602.335921	100
584.325356	100
576.320271	100
558.309706	100
297.038092	200
281.248604	200
255.232954	200
241.011878	200

NAME: PI_d5 36:2
PRECURSORMZ: 890.5777
PRECURSORTYPE: [M+Na]+
IONMODE: Positive
FORMULA: C45H78D5O13P
SMILES: C([2H])([2H])(OC(CCCCCCC/C=C\CCCCCCCC)=O)C([2H])(OC(CCCCCCC/C=C\CCCCCCCC)=O)C([2H])([2H])OP(O)(=O)OC1C(O)C(O)C(O)C(O)C1O
INCHIKEY: LALGUHSIWLNTNW-XZPPQYRVSA-N
COMPOUNDCLASS: PI_d5
RETENTIONTIME: 
COMMENT: 
Num Peaks: 4
890.577734	800
630.548015	100
608.566071	300
283.018939	999

NAME: PI_d5 34:1
PRECURSORMZ: 864.5621
PRECURSORTYPE: [M+Na]+
IONMODE: Positive
FORMULA: C43H76D5O13P
SMILES: C([2H])([2H])(OC(CCCCCCCCCCCCCCC)=O)C([2H])(OC(CCCCCCC/C=C\CCCCCCCC)=O)C([2H])([2H])OP(O)(=O)OC1C(O)C(O)C(O)C(O)C1O
INCHIKEY: PDLAMJKMOKWLAJ-BWCYHSMVSA-N
COMPOUNDCLASS: PI_d5
RETENTIONTIME: 
COMMENT: 
Num Peaks: 4
864.562084	800
604.532365	100
582.550421	300
283.018939	999

NAME: PI_d5 32:0
PRECURSORMZ: 838.5464
PRECURSORTYPE: [M+Na]+
IONMODE: Positive
FORMULA: C41H74D5O13P
SMILES: C([2H])([2H])(OC(CCCCCCCCCCCCCCC)=O)C([2H])(OC(CCCCCCCCCCCCCCC)=O)C([2H])([2H])OP(O)(=O)OC1C(O)C(O)C(O)C(O)C1O
INCHIKEY: IBUKXRINTKQBRQ-YYRBTATQSA-N
COMPOUNDCLASS: PI_d5
RETENTIONTIME: 
COMMENT: 
Num Peaks: 4
838.546434	800
578.516715	100
556.534771	300
283.018939	999

NAME: PI_d5 36:2
PRECURSORMZ: 885.6223
PRECURSORTYPE: [M+NH4]+
IONMODE: Positive
FORMULA: C45H78D5O13P
SMILES: C([2H])([2H])(OC(CCCCCCC/C=C\CCCCCCCC)=O)C([2H])(OC(CCCCCCC/C=C\CCCCCCCC)=O)C([2H])([2H])OP(O)(=O)OC1C(O)C(O)C(O)C(O)C1O
INCHIKEY: LALGUHSIWLNTNW-XZPPQYRVSA-N
COMPOUNDCLASS: PI_d5
RETENTIONTIME: 
COMMENT: 
Num Peaks: 2
885.622339	50
608.566071	999

NAME: PI_d5 34:1
PRECURSORMZ: 859.6067
PRECURSORTYPE: [M+NH4]+
IONMODE: Positive
FORMULA: C43H76D5O13P
SMILES: C([2H])([2H])(OC(CCCCCCCCCCCCCCC)=O)C([2H])(OC(CCCCCCC/C=C\CCCCCCCC)=O)C([2H])([2H])OP(O)(=O)OC1C(O)C(O)C(O)C(O)C1O
INCHIKEY: PDLAMJKMOKWLAJ-BWCYHSMVSA-N
COMPOUNDCLASS: PI_d5
RETENTIONTIME: 
COMMENT: 
Num Peaks: 2
859.606689	50
582.550421	999

NAME: PI_d5 32:0
PRECURSORMZ: 833.591
PRECURSORTYPE: [M+NH4]+
IONMODE: Positive
FORMULA: C41H74D5O13P
SMILES: C([2H])([2H])(OC(CCCCCCCCCCCCCCC)=O)C([2H])(OC(CCCCCCCCCCCCCCC)=O)C([2H])([2H])OP(O)(=O)OC1C(O)C(O)C(O)C(O)C1O
INCHIKEY: IBUKXRINTKQBRQ-YYRBTATQSA-N
COMPOUNDCLASS: PI_d5
RETENTIONTIME: 
COMMENT: 
Num Peaks: 2
833.591039	50
556.534771	999

NAME: PI 16:0_18:1
PRECURSORMZ: 835.5342028623
PRECURSORTYPE: [M-H]-
IONMODE: Negative
FORMULA: C43H81O13P
SMILES: O=C(OCC(OC(=O)CCCCCCCC=CCCCCCCCC)COP(=O)(O)OC1C(O)C(O)C(O)C(O)C1O)CCCCCCCCCCCCCCC
INCHIKEY: PDLAMJKMOKWLAJ-UHFFFAOYSA-N
COMPOUNDCLASS: PI
RETENTIONTIME: 
COMMENT: 
Num Peaks: 9
835.534203	999
597.304537	100
579.293973	100
571.288887	100
553.278323	100
297.038092	200
281.248604	200
255.232954	200
241.011878	200

NAME: PI 36:2
PRECURSORMZ: 885.546350046
PRECURSORTYPE: [M+Na]+
IONMODE: Positive
FORMULA: C45H83O13P
SMILES: O=C(OCC(OC(=O)CCCCCCCC=CCCCCCCCC)COP(=O)(O)OC1C(O)C(O)C(O)C(O)C1O)CCCCCCCC=CCCCCCCCC
INCHIKEY: LALGUHSIWLNTNW-UHFFFAOYSA-N
COMPOUNDCLASS: PI
RETENTIONTIME: 
COMMENT: 
Num Peaks: 4
885.54635	800
625.516631	100
603.534687	300
283.018939	999

NAME: PI 34:1
PRECURSORMZ: 859.530699982
PRECURSORTYPE: [M+Na]+
IONMODE: Positive
FORMULA: C43H81O13P
SMILES: O=C(OCC(OC(=O)CCCCCCCC=CCCCCCCCC)COP(=O)(O)OC1C(O)C(O)C(O)C(O)C1O)CCCCCCCCCCCCCCC
INCHIKEY: PDLAMJKMOKWLAJ-UHFFFAOYSA-N
COMPOUNDCLASS: PI
RETENTIONTIME: 
COMMENT: 
Num Peaks: 4
859.5307	800
599.500981	100
577.519037	300
283.018939	999

NAME: PI 32:0
PRECURSORMZ: 833.515049918
PRECURSORTYPE: [M+Na]+
IONMODE: Positive
FORMULA: C41H79O13P
SMILES: O=C(OCC(OC(=O)CCCCCCCCCCCCCCC)COP(=O)(O)OC1C(O)C(O)C(O)C(O)C1O)CCCCCCCCCCCCCCC
INCHIKEY: IBUKXRINTKQBRQ-UHFFFAOYSA-N
COMPOUNDCLASS: PI
RETENTIONTIME: 
COMMENT: 
Num Peaks: 4
833.51505	800
573.485331	100
551.503387	300
283.018939	999

NAME: PI 36:2
PRECURSORMZ: 880.590954899
PRECURSORTYPE: [M+NH4]+
IONMODE: Positive
FORMULA: C45H83O13P
SMILES: O=C(OCC(OC(=O)CCCCCCCC=CCCCCCCCC)COP(=O)(O)OC1C(O)C(O)C(O)C(O)C1O)CCCCCCCC=CCCCCCCCC
INCHIKEY: LALGUHSIWLNTNW-UHFFFAOYSA-N
COMPOUNDCLASS: PI
RETENTIONTIME: 
COMMENT: 
Num Peaks: 2
880.590955	50
603.534687	999

NAME: PI 34:1
PRECURSORMZ: 854.575304835
PRECURSORTYPE: [M+NH4]+
IONMODE: Positive
FORMULA: C43H81O13P
SMILES: O=C(OCC(OC(=O)CCCCCCCC=CCCCCCCCC)COP(=O)(O)OC1C(O)C(O)C(O)C(O)C1O)CCCCCCCCCCCCCCC
INCHIKEY: PDLAMJKMOKWLAJ-UHFFFAOYSA-N
COMPOUNDCLASS: PI
RETENTIONTIME: 
COMMENT: 
Num Peaks: 2
854.575305	50
577.519037	999

NAME: PI 32:0
PRECURSORMZ: 828.559654771
PRECURSORTYPE: [M+NH4]+
IONMODE: Positive
FORMULA: C41H79O13P
SMILES: O=C(OCC(OC(=O)CCCCCCCCCCCCCCC)COP(=O)(O)OC1C(O)C(O)C(O)C(O)C1O)CCCCCCCCCCCCCCC
INCHIKEY: IBUKXRINTKQBRQ-UHFFFAOYSA-N
COMPOUNDCLASS: PI
RETENTIONTIME: 
COMMENT: 
Num Peaks: 2
828.559655	50
551.503387	999

NAME: PMeOH 16:0_18:1
PRECURSORMZ: 687.4970295063
PRECURSORTYPE: [M-H]-
IONMODE: Negative
FORMULA: C38H73O8P
SMILES: O=C(OCC(OC(=O)CCCCCCCC=CCCCCCCCC)COP(=O)(O)OC)CCCCCCCCCCCCCCC
INCHIKEY: VAARQXKGNHCRDF-UHFFFAOYSA-N
COMPOUNDCLASS: PMeOH
RETENTIONTIME: 
COMMENT: 
Num Peaks: 7
687.49703	150
449.267364	50
423.251714	50
281.248604	999
255.232954	999
167.011484	10
110.985269	10

NAME: PMeOH 16:0_18:1
PRECURSORMZ: 706.538131479
PRECURSORTYPE: [M+NH4]+
IONMODE: Positive
FORMULA: C38H73O8P
SMILES: O=C(OCC(OC(=O)CCCCCCCC=CCCCCCCCC)COP(=O)(O)OC)CCCCCCCCCCCCCCC
INCHIKEY: VAARQXKGNHCRDF-UHFFFAOYSA-N
COMPOUNDCLASS: PMeOH
RETENTIONTIME: 
COMMENT: 
Num Peaks: 10
706.538131	1
577.519037	999
433.271352	30
407.255702	30
339.289371	60
313.273721	60
265.252592	120
239.236942	120
169.026036	60
112.999822	10

NAME: PS_d5 16:0_18:1
PRECURSORMZ: 765.5448
PRECURSORTYPE: [M-H]-
IONMODE: Negative
FORMULA: C40H71D5NO10P
SMILES: C(N)(COP(O)(=O)OC([2H])([2H])C(OC(CCCCCCC/C=C\CCCCCCCC)=O)([2H])C([2H])([2H])OC(CCCCCCCCCCCCCCC)=O)C(O)=O
INCHIKEY: OIWCYIUQAVBPGV-HUDQNGPDSA-N
COMPOUNDCLASS: PS_d5
RETENTIONTIME: 
COMMENT: 
Num Peaks: 8
765.544792	500
678.512763	600
440.283098	200
422.272533	200
414.267448	200
396.256883	200
281.248604	999
255.232954	999

NAME: PS_d5 16:0_18:1
PRECURSORMZ: 767.5593
PRECURSORTYPE: [M+H]+
IONMODE: Positive
FORMULA: C40H71D5NO10P
SMILES: C(N)(COP(O)(=O)OC([2H])([2H])C(OC(CCCCCCC/C=C\CCCCCCCC)=O)([2H])C([2H])([2H])OC(CCCCCCCCCCCCCCC)=O)C(O)=O
INCHIKEY: OIWCYIUQAVBPGV-HUDQNGPDSA-N
COMPOUNDCLASS: PS_d5
RETENTIONTIME: 
COMMENT: 
Num Peaks: 6
767.559344	200
582.550421	999
529.329679	10
511.319114	10
503.314029	10
485.303464	10

NAME: PS_d5 36:2
PRECURSORMZ: 815.5569
PRECURSORTYPE: [M+Na]+
IONMODE: Positive
FORMULA: C42H73D5NO10P
SMILES: C(N)(COP(O)(=O)OC([2H])([2H])C(OC(CCCCCCC/C=C\CCCCCCCC)=O)([2H])C([2H])([2H])OC(CCCCCCC/C=C\CCCCCCCC)=O)C(O)=O
INCHIKEY: WTBFLCSPLLEDEM-FMAZSBNNSA-N
COMPOUNDCLASS: PS_d5
RETENTIONTIME: 
COMMENT: 
Num Peaks: 5
815.556939	800
728.52491	300
630.548015	700
608.566071	300
207.998144	999

NAME: PS_d5 34:1
PRECURSORMZ: 789.5413
PRECURSORTYPE: [M+Na]+
IONMODE: Positive
FORMULA: C40H71D5NO10P
SMILES: C(N)(COP(O)(=O)OC([2H])([2H])C(OC(CCCCCCC/C=C\CCCCCCCC)=O)([2H])C([2H])([2H])OC(CCCCCCCCCCCCCCC)=O)C(O)=O
INCHIKEY: OIWCYIUQAVBPGV-HUDQNGPDSA-N
COMPOUNDCLASS: PS_d5
RETENTIONTIME: 
COMMENT: 
Num Peaks: 5
789.541289	800
702.50926	300
604.532365	700
582.550421	300
207.998144	999

NAME: PS_d5 32:0
PRECURSORMZ: 763.5256
PRECURSORTYPE: [M+Na]+
IONMODE: Positive
FORMULA: C38H69D5NO10P
SMILES: C(N)(COP(O)(=O)OC([2H])([2H])C(OC(CCCCCCCCCCCCCCC)=O)([2H])C([2H])([2H])OC(CCCCCCCCCCCCCCC)=O)C(O)=O
INCHIKEY: KLFKZIQAIPDJCW-STYPZNNHSA-N
COMPOUNDCLASS: PS_d5
RETENTIONTIME: 
COMMENT: 
Num Peaks: 5
763.525639	800
676.49361	300
578.516715	700
556.534771	300
207.998144	999

NAME: PS 16:0_18:1
PRECURSORMZ: 760.5134078423
PRECURSORTYPE: [M-H]-
IONMODE: Negative
FORMULA: C40H76NO10P
SMILES: O=C(OCC(OC(=O)CCCCCCCC=CCCCCCCCC)COP(=O)(O)OCC(N)C(=O)O)CCCCCCCCCCCCCCC
INCHIKEY: OIWCYIUQAVBPGV-UHFFFAOYSA-N
COMPOUNDCLASS: PS
RETENTIONTIME: 
COMMENT: 
Num Peaks: 8
760.513408	500
673.481379	600
435.251714	200
417.241149	200
409.236064	200
391.225499	200
281.248604	999
255.232954	999

NAME: PS 16:0_18:1
PRECURSORMZ: 762.5279606817
PRECURSORTYPE: [M+H]+
IONMODE: Positive
FORMULA: C40H76NO10P
SMILES: O=C(OCC(OC(=O)CCCCCCCC=CCCCCCCCC)COP(=O)(O)OCC(N)C(=O)O)CCCCCCCCCCCCCCC
INCHIKEY: OIWCYIUQAVBPGV-UHFFFAOYSA-N
COMPOUNDCLASS: PS
RETENTIONTIME: 
COMMENT: 
Num Peaks: 6
762.527961	200
577.519037	999
524.298295	10
506.28773	10
498.282645	10
480.27208	10

NAME: PS 36:2
PRECURSORMZ: 810.525555026
PRECURSORTYPE: [M+Na]+
IONMODE: Positive
FORMULA: C42H78NO10P
SMILES: O=C(OCC(OC(=O)CCCCCCCC=CCCCCCCCC)COP(=O)(O)OCC(N)C(=O)O)CCCCCCCC=CCCCCCCCC
INCHIKEY: WTBFLCSPLLEDEM-UHFFFAOYSA-N
COMPOUNDCLASS: PS
RETENTIONTIME: 
COMMENT: 
Num Peaks: 5
810.525555	800
723.493527	300
625.516631	700
603.534687	300
207.998144	999

NAME: PS 34:1
PRECURSORMZ: 784.509904962
PRECURSORTYPE: [M+Na]+
IONMODE: Positive
FORMULA: C40H76NO10P
SMILES: O=C(OCC(OC(=O)CCCCCCCC=CCCCCCCCC)COP(=O)(O)OCC(N)C(=O)O)CCCCCCCCCCCCCCC
INCHIKEY: OIWCYIUQAVBPGV-UHFFFAOYSA-N
COMPOUNDCLASS: PS
RETENTIONTIME: 
COMMENT: 
Num Peaks: 5
784.509905	800
697.477877	300
599.500981	700
577.519037	300
207.998144	999

NAME: PS 32:0
PRECURSORMZ: 758.494254898
PRECURSORTYPE: [M+Na]+
IONMODE: Positive
FORMULA: C38H74NO10P
SMILES: O=C(OCC(OC(=O)CCCCCCCCCCCCCCC)COP(=O)(O)OCC(N)C(=O)O)CCCCCCCCCCCCCCC
INCHIKEY: KLFKZIQAIPDJCW-UHFFFAOYSA-N
COMPOUNDCLASS: PS
RETENTIONTIME: 
COMMENT: 
Num Peaks: 5
758.494255	800
671.462226	300
573.485331	700
551.503387	300
207.998144	999

NAME: PT 16:0_18:1
PRECURSORMZ: 774.5290579063
PRECURSORTYPE: [M-H]-
IONMODE: Negative
FORMULA: C41H78NO10P
SMILES: O=C(OCC(OC(=O)CCCCCCCC=CCCCCCCCC)COP(=O)(O)OC(C)C(N)C(=O)O)CCCCCCCCCCCCCCC
INCHIKEY: JUPDENQVFJYYOC-UHFFFAOYSA-N
COMPOUNDCLASS: PT
RETENTIONTIME: 
COMMENT: 
Num Peaks: 9
774.529058	999
673.481379	50
435.251714	100
417.241149	100
409.236064	100
391.225499	100
281.248604	100
255.232954	100
152.995834	50

NAME: PT 16:0_18:1
PRECURSORMZ: 776.5436107457
PRECURSORTYPE: [M+H]+
IONMODE: Positive
FORMULA: C41H78NO10P
SMILES: O=C(OCC(OC(=O)CCCCCCCC=CCCCCCCCC)COP(=O)(O)OC(C)C(N)C(=O)O)CCCCCCCCCCCCCCC
INCHIKEY: JUPDENQVFJYYOC-UHFFFAOYSA-N
COMPOUNDCLASS: PT
RETENTIONTIME: 
COMMENT: 
Num Peaks: 9
776.543611	200
577.519037	999
538.313945	10
520.30338	10
512.298295	10
494.28773	10
339.289371	100
313.273721	100
102.054955	100

