NAME: Cer 18:0;O2/18:1
PRECURSORMZ: 610.5416
PRECURSORTYPE: [M+HCOO]-
IONMODE: Negative
FORMULA: C36H71NO3
SMILES: O=C(NC(CO)C(O)CCCCCCCCCCCCCCC)CCCCCCCC=CCCCCCCCC
INCHIKEY: MJQIARGPQMNBGT-UHFFFAOYSA-N
COMPOUNDCLASS: Cer_NDS
RETENTIONTIME: 
COMMENT: 
Num Peaks: 10
610.541598	10
564.536119	999
532.509904	300
516.514989	200
322.275153	300
306.280238	400
300.290803	50
280.264588	100
263.238039	200
239.238039	300

NAME: Cer 18:0;O2/20:4
PRECURSORMZ: 632.5259
PRECURSORTYPE: [M+HCOO]-
IONMODE: Negative
FORMULA: C38H69NO3
SMILES: O=C(NC(CO)C(O)CCCCCCCCCCCCCCC)CCCCCCC=CCC=CCC=CCC=CCC
INCHIKEY: VUIATRXKFIGEKH-UHFFFAOYSA-N
COMPOUNDCLASS: Cer_NDS
RETENTIONTIME: 
COMMENT: 
Num Peaks: 10
632.525948	10
586.520469	999
554.494254	300
538.499339	200
344.259503	300
328.264588	400
302.248938	100
300.290803	50
285.222389	200
239.238039	300

NAME: Cer 18:0;O2/18:1
PRECURSORMZ: 548.5401
PRECURSORTYPE: [M+H-H2O]+
IONMODE: Positive
FORMULA: C36H71NO3
SMILES: O=C(NC(CO)C(O)CCCCCCCCCCCCCCC)CCCCCCCC=CCCCCCCCC
INCHIKEY: MJQIARGPQMNBGT-UHFFFAOYSA-N
COMPOUNDCLASS: Cer_NDS
RETENTIONTIME: 
COMMENT: 
Num Peaks: 6
548.540107	100
530.529542	100
284.294791	200
282.279141	100
266.284227	999
254.284227	200

NAME: Cer 18:0;O2/20:4
PRECURSORMZ: 570.5245
PRECURSORTYPE: [M+H-H2O]+
IONMODE: Positive
FORMULA: C38H69NO3
SMILES: O=C(NC(CO)C(O)CCCCCCCCCCCCCCC)CCCCCCC=CCC=CCC=CCC=CCC
INCHIKEY: VUIATRXKFIGEKH-UHFFFAOYSA-N
COMPOUNDCLASS: Cer_NDS
RETENTIONTIME: 
COMMENT: 
Num Peaks: 6
570.524457	100
552.513892	100
304.263491	100
284.294791	200
266.284227	999
254.284227	200

NAME: Cer 18:0;O2/18:1
PRECURSORMZ: 624.5572
PRECURSORTYPE: [M+CH3COO]-
IONMODE: Negative
FORMULA: C36H71NO3
SMILES: O=C(NC(CO)C(O)CCCCCCCCCCCCCCC)CCCCCCCC=CCCCCCCCC
INCHIKEY: MJQIARGPQMNBGT-UHFFFAOYSA-N
COMPOUNDCLASS: Cer_NDS
RETENTIONTIME: 
COMMENT: 
Num Peaks: 10
624.557248	10
564.536119	999
532.509904	300
516.514989	200
322.275153	300
306.280238	400
300.290803	50
280.264588	100
263.238039	200
239.238039	300

NAME: Cer 18:0;O2/20:4
PRECURSORMZ: 646.5416
PRECURSORTYPE: [M+CH3COO]-
IONMODE: Negative
FORMULA: C38H69NO3
SMILES: O=C(NC(CO)C(O)CCCCCCCCCCCCCCC)CCCCCCC=CCC=CCC=CCC=CCC
INCHIKEY: VUIATRXKFIGEKH-UHFFFAOYSA-N
COMPOUNDCLASS: Cer_NDS
RETENTIONTIME: 
COMMENT: 
Num Peaks: 10
646.541598	10
586.520469	999
554.494254	300
538.499339	200
344.259503	300
328.264588	400
302.248938	100
300.290803	50
285.222389	200
239.238039	300

NAME: Cer 18:0;O2/18:1
PRECURSORMZ: 564.5361
PRECURSORTYPE: [M-H]-
IONMODE: Negative
FORMULA: C36H71NO3
SMILES: O=C(NC(CO)C(O)CCCCCCCCCCCCCCC)CCCCCCCC=CCCCCCCCC
INCHIKEY: MJQIARGPQMNBGT-UHFFFAOYSA-N
COMPOUNDCLASS: Cer_NDS
RETENTIONTIME: 
COMMENT: 
Num Peaks: 9
564.536119	999
532.509904	300
516.514989	200
322.275153	300
306.280238	400
300.290803	50
280.264588	100
263.238039	200
239.238039	300

NAME: Cer 18:0;O2/20:4
PRECURSORMZ: 586.5205
PRECURSORTYPE: [M-H]-
IONMODE: Negative
FORMULA: C38H69NO3
SMILES: O=C(NC(CO)C(O)CCCCCCCCCCCCCCC)CCCCCCC=CCC=CCC=CCC=CCC
INCHIKEY: VUIATRXKFIGEKH-UHFFFAOYSA-N
COMPOUNDCLASS: Cer_NDS
RETENTIONTIME: 
COMMENT: 
Num Peaks: 9
586.520469	999
554.494254	300
538.499339	200
344.259503	300
328.264588	400
302.248938	100
300.290803	50
285.222389	200
239.238039	300

NAME: Cer 18:0;O2/18:1
PRECURSORMZ: 566.5507
PRECURSORTYPE: [M+H]+
IONMODE: Positive
FORMULA: C36H71NO3
SMILES: O=C(NC(CO)C(O)CCCCCCCCCCCCCCC)CCCCCCCC=CCCCCCCCC
INCHIKEY: MJQIARGPQMNBGT-UHFFFAOYSA-N
COMPOUNDCLASS: Cer_NDS
RETENTIONTIME: 
COMMENT: 
Num Peaks: 7
566.550672	50
548.540107	100
530.529542	100
284.294791	200
282.279141	100
266.284227	999
254.284227	200

NAME: Cer 18:0;O2/20:4
PRECURSORMZ: 588.535
PRECURSORTYPE: [M+H]+
IONMODE: Positive
FORMULA: C38H69NO3
SMILES: O=C(NC(CO)C(O)CCCCCCCCCCCCCCC)CCCCCCC=CCC=CCC=CCC=CCC
INCHIKEY: VUIATRXKFIGEKH-UHFFFAOYSA-N
COMPOUNDCLASS: Cer_NDS
RETENTIONTIME: 
COMMENT: 
Num Peaks: 7
588.535021	50
570.524457	100
552.513892	100
304.263491	100
284.294791	200
266.284227	999
254.284227	200

NAME: Cer 18:0;O2/18:1
PRECURSORMZ: 588.5326
PRECURSORTYPE: [M+Na]+
IONMODE: Positive
FORMULA: C36H71NO3
SMILES: O=C(NC(CO)C(O)CCCCCCCCCCCCCCC)CCCCCCCC=CCCCCCCCC
INCHIKEY: MJQIARGPQMNBGT-UHFFFAOYSA-N
COMPOUNDCLASS: Cer_NDS
RETENTIONTIME: 
COMMENT: 
Num Peaks: 2
588.532616	999
266.284227	50

NAME: Cer 18:0;O2/20:4
PRECURSORMZ: 610.517
PRECURSORTYPE: [M+Na]+
IONMODE: Positive
FORMULA: C38H69NO3
SMILES: O=C(NC(CO)C(O)CCCCCCCCCCCCCCC)CCCCCCC=CCC=CCC=CCC=CCC
INCHIKEY: VUIATRXKFIGEKH-UHFFFAOYSA-N
COMPOUNDCLASS: Cer_NDS
RETENTIONTIME: 
COMMENT: 
Num Peaks: 2
610.516966	999
266.284227	50

NAME: Cer 18:0;O3/18:1
PRECURSORMZ: 626.5365
PRECURSORTYPE: [M+HCOO]-
IONMODE: Negative
FORMULA: C36H71NO4
SMILES: O=C(NC(CO)C(O)C(O)CCCCCCCCCCCCCC)CCCCCCCC=CCCCCCCCC
INCHIKEY: ATGQXSBKTQANOH-UHFFFAOYSA-N
COMPOUNDCLASS: Cer_NP
RETENTIONTIME: 
COMMENT: 
Num Peaks: 13
626.536513	10
580.531033	999
562.520469	100
544.509904	200
336.290803	700
324.290803	700
322.275153	200
306.280238	200
281.248604	500
280.264588	250
267.232954	500
255.232954	200
225.222389	50

NAME: Cer 18:0;O3/20:4
PRECURSORMZ: 648.5209
PRECURSORTYPE: [M+HCOO]-
IONMODE: Negative
FORMULA: C38H69NO4
SMILES: O=C(NC(CO)C(O)C(O)CCCCCCCCCCCCCC)CCCCCCC=CCC=CCC=CCC=CCC
INCHIKEY: PBZAQJXQHSFGJX-UHFFFAOYSA-N
COMPOUNDCLASS: Cer_NP
RETENTIONTIME: 
COMMENT: 
Num Peaks: 13
648.520863	10
602.515383	999
584.504819	100
566.494254	200
358.275153	700
346.275153	700
344.259503	200
328.264588	200
303.232954	500
302.248938	250
267.232954	500
255.232954	200
225.222389	50

NAME: Cer 18:1;O3/18:0
PRECURSORMZ: 626.5365
PRECURSORTYPE: [M+HCOO]-
IONMODE: Negative
FORMULA: C36H71NO4
SMILES: O=C(NC(CO)C(O)C(O)CCCC=CCCCCCCCCC)CCCCCCCCCCCCCCCCC
INCHIKEY: DPSVAJOUDJRIIM-UHFFFAOYSA-N
COMPOUNDCLASS: Cer_NP
RETENTIONTIME: 
COMMENT: 
Num Peaks: 13
626.536513	10
580.531033	999
562.520469	100
544.509904	200
338.306453	700
326.306453	700
324.290803	200
308.295888	200
283.264254	500
282.280238	250
265.217304	500
253.217304	200
223.206739	50

NAME: Cer 18:1;O3/20:4
PRECURSORMZ: 646.5052
PRECURSORTYPE: [M+HCOO]-
IONMODE: Negative
FORMULA: C38H67NO4
SMILES: O=C(NC(CO)C(O)C(O)CCCC=CCCCCCCCCC)CCCCCCC=CCC=CCC=CCC=CCC
INCHIKEY: BALKVZXHIJAOEQ-UHFFFAOYSA-N
COMPOUNDCLASS: Cer_NP
RETENTIONTIME: 
COMMENT: 
Num Peaks: 13
646.505212	10
600.499733	999
582.489169	100
564.478604	200
358.275153	700
346.275153	700
344.259503	200
328.264588	200
303.232954	500
302.248938	250
265.217304	500
253.217304	200
223.206739	50

NAME: Cer 18:0;O3/18:1
PRECURSORMZ: 640.5522
PRECURSORTYPE: [M+CH3COO]-
IONMODE: Negative
FORMULA: C36H71NO4
SMILES: O=C(NC(CO)C(O)C(O)CCCCCCCCCCCCCC)CCCCCCCC=CCCCCCCCC
INCHIKEY: ATGQXSBKTQANOH-UHFFFAOYSA-N
COMPOUNDCLASS: Cer_NP
RETENTIONTIME: 
COMMENT: 
Num Peaks: 13
640.552163	10
580.531033	999
562.520469	100
544.509904	200
336.290803	700
324.290803	700
322.275153	200
306.280238	200
281.248604	500
280.264588	250
267.232954	500
255.232954	200
225.222389	50

NAME: Cer 18:0;O3/20:4
PRECURSORMZ: 662.5365
PRECURSORTYPE: [M+CH3COO]-
IONMODE: Negative
FORMULA: C38H69NO4
SMILES: O=C(NC(CO)C(O)C(O)CCCCCCCCCCCCCC)CCCCCCC=CCC=CCC=CCC=CCC
INCHIKEY: PBZAQJXQHSFGJX-UHFFFAOYSA-N
COMPOUNDCLASS: Cer_NP
RETENTIONTIME: 
COMMENT: 
Num Peaks: 13
662.536513	10
602.515383	999
584.504819	100
566.494254	200
358.275153	700
346.275153	700
344.259503	200
328.264588	200
303.232954	500
302.248938	250
267.232954	500
255.232954	200
225.222389	50

NAME: Cer 18:1;O3/18:0
PRECURSORMZ: 640.5522
PRECURSORTYPE: [M+CH3COO]-
IONMODE: Negative
FORMULA: C36H71NO4
SMILES: O=C(NC(CO)C(O)C(O)CCCC=CCCCCCCCCC)CCCCCCCCCCCCCCCCC
INCHIKEY: DPSVAJOUDJRIIM-UHFFFAOYSA-N
COMPOUNDCLASS: Cer_NP
RETENTIONTIME: 
COMMENT: 
Num Peaks: 13
640.552163	10
580.531033	999
562.520469	100
544.509904	200
338.306453	700
326.306453	700
324.290803	200
308.295888	200
283.264254	500
282.280238	250
265.217304	500
253.217304	200
223.206739	50

NAME: Cer 18:1;O3/20:4
PRECURSORMZ: 660.5209
PRECURSORTYPE: [M+CH3COO]-
IONMODE: Negative
FORMULA: C38H67NO4
SMILES: O=C(NC(CO)C(O)C(O)CCCC=CCCCCCCCCC)CCCCCCC=CCC=CCC=CCC=CCC
INCHIKEY: BALKVZXHIJAOEQ-UHFFFAOYSA-N
COMPOUNDCLASS: Cer_NP
RETENTIONTIME: 
COMMENT: 
Num Peaks: 13
660.520863	10
600.499733	999
582.489169	100
564.478604	200
358.275153	700
346.275153	700
344.259503	200
328.264588	200
303.232954	500
302.248938	250
265.217304	500
253.217304	200
223.206739	50

NAME: Cer 18:0;O3/18:1
PRECURSORMZ: 580.531
PRECURSORTYPE: [M-H]-
IONMODE: Negative
FORMULA: C36H71NO4
SMILES: O=C(NC(CO)C(O)C(O)CCCCCCCCCCCCCC)CCCCCCCC=CCCCCCCCC
INCHIKEY: ATGQXSBKTQANOH-UHFFFAOYSA-N
COMPOUNDCLASS: Cer_NP
RETENTIONTIME: 
COMMENT: 
Num Peaks: 12
580.531033	999
562.520469	100
544.509904	200
336.290803	700
324.290803	700
322.275153	200
306.280238	200
281.248604	500
280.264588	250
267.232954	500
255.232954	200
225.222389	50

NAME: Cer 18:0;O3/20:4
PRECURSORMZ: 602.5154
PRECURSORTYPE: [M-H]-
IONMODE: Negative
FORMULA: C38H69NO4
SMILES: O=C(NC(CO)C(O)C(O)CCCCCCCCCCCCCC)CCCCCCC=CCC=CCC=CCC=CCC
INCHIKEY: PBZAQJXQHSFGJX-UHFFFAOYSA-N
COMPOUNDCLASS: Cer_NP
RETENTIONTIME: 
COMMENT: 
Num Peaks: 12
602.515383	999
584.504819	100
566.494254	200
358.275153	700
346.275153	700
344.259503	200
328.264588	200
303.232954	500
302.248938	250
267.232954	500
255.232954	200
225.222389	50

NAME: Cer 18:1;O3/18:0
PRECURSORMZ: 580.531
PRECURSORTYPE: [M-H]-
IONMODE: Negative
FORMULA: C36H71NO4
SMILES: O=C(NC(CO)C(O)C(O)CCCC=CCCCCCCCCC)CCCCCCCCCCCCCCCCC
INCHIKEY: DPSVAJOUDJRIIM-UHFFFAOYSA-N
COMPOUNDCLASS: Cer_NP
RETENTIONTIME: 
COMMENT: 
Num Peaks: 12
580.531033	999
562.520469	100
544.509904	200
338.306453	700
326.306453	700
324.290803	200
308.295888	200
283.264254	500
282.280238	250
265.217304	500
253.217304	200
223.206739	50

NAME: Cer 18:1;O3/20:4
PRECURSORMZ: 600.4997
PRECURSORTYPE: [M-H]-
IONMODE: Negative
FORMULA: C38H67NO4
SMILES: O=C(NC(CO)C(O)C(O)CCCC=CCCCCCCCCC)CCCCCCC=CCC=CCC=CCC=CCC
INCHIKEY: BALKVZXHIJAOEQ-UHFFFAOYSA-N
COMPOUNDCLASS: Cer_NP
RETENTIONTIME: 
COMMENT: 
Num Peaks: 12
600.499733	999
582.489169	100
564.478604	200
358.275153	700
346.275153	700
344.259503	200
328.264588	200
303.232954	500
302.248938	250
265.217304	500
253.217304	200
223.206739	50

NAME: Cer 18:0;O3/18:1
PRECURSORMZ: 582.5456
PRECURSORTYPE: [M+H]+
IONMODE: Positive
FORMULA: C36H71NO4
SMILES: O=C(NC(CO)C(O)C(O)CCCCCCCCCCCCCC)CCCCCCCC=CCCCCCCCC
INCHIKEY: ATGQXSBKTQANOH-UHFFFAOYSA-N
COMPOUNDCLASS: Cer_NP
RETENTIONTIME: 
COMMENT: 
Num Peaks: 8
582.545586	50
564.535021	800
546.524457	200
300.289706	800
282.279141	800
280.263491	300
264.268576	999
252.268576	200

NAME: Cer 18:0;O3/20:4
PRECURSORMZ: 604.5299
PRECURSORTYPE: [M+H]+
IONMODE: Positive
FORMULA: C38H69NO4
SMILES: O=C(NC(CO)C(O)C(O)CCCCCCCCCCCCCC)CCCCCCC=CCC=CCC=CCC=CCC
INCHIKEY: PBZAQJXQHSFGJX-UHFFFAOYSA-N
COMPOUNDCLASS: Cer_NP
RETENTIONTIME: 
COMMENT: 
Num Peaks: 8
604.529936	50
586.519371	800
568.508807	200
302.247841	300
300.289706	800
282.279141	800
264.268576	999
252.268576	200

NAME: Cer 18:1;O3/18:0
PRECURSORMZ: 582.5456
PRECURSORTYPE: [M+H]+
IONMODE: Positive
FORMULA: C36H71NO4
SMILES: O=C(NC(CO)C(O)C(O)CCCC=CCCCCCCCCC)CCCCCCCCCCCCCCCCC
INCHIKEY: DPSVAJOUDJRIIM-UHFFFAOYSA-N
COMPOUNDCLASS: Cer_NP
RETENTIONTIME: 
COMMENT: 
Num Peaks: 8
582.545586	50
564.535021	800
546.524457	200
298.274056	800
282.279141	300
280.263491	800
262.252926	999
250.252926	200

NAME: Cer 18:1;O3/20:4
PRECURSORMZ: 602.5143
PRECURSORTYPE: [M+H]+
IONMODE: Positive
FORMULA: C38H67NO4
SMILES: O=C(NC(CO)C(O)C(O)CCCC=CCCCCCCCCC)CCCCCCC=CCC=CCC=CCC=CCC
INCHIKEY: BALKVZXHIJAOEQ-UHFFFAOYSA-N
COMPOUNDCLASS: Cer_NP
RETENTIONTIME: 
COMMENT: 
Num Peaks: 8
602.514286	50
584.503721	800
566.493157	200
302.247841	300
298.274056	800
280.263491	800
262.252926	999
250.252926	200

NAME: Cer 18:0;O3/18:1
PRECURSORMZ: 604.5275
PRECURSORTYPE: [M+Na]+
IONMODE: Positive
FORMULA: C36H71NO4
SMILES: O=C(NC(CO)C(O)C(O)CCCCCCCCCCCCCC)CCCCCCCC=CCCCCCCCC
INCHIKEY: ATGQXSBKTQANOH-UHFFFAOYSA-N
COMPOUNDCLASS: Cer_NP
RETENTIONTIME: 
COMMENT: 
Num Peaks: 2
604.52753	999
282.279141	50

NAME: Cer 18:0;O3/20:4
PRECURSORMZ: 626.5119
PRECURSORTYPE: [M+Na]+
IONMODE: Positive
FORMULA: C38H69NO4
SMILES: O=C(NC(CO)C(O)C(O)CCCCCCCCCCCCCC)CCCCCCC=CCC=CCC=CCC=CCC
INCHIKEY: PBZAQJXQHSFGJX-UHFFFAOYSA-N
COMPOUNDCLASS: Cer_NP
RETENTIONTIME: 
COMMENT: 
Num Peaks: 2
626.51188	999
282.279141	50

NAME: Cer 18:1;O3/18:0
PRECURSORMZ: 604.5275
PRECURSORTYPE: [M+Na]+
IONMODE: Positive
FORMULA: C36H71NO4
SMILES: O=C(NC(CO)C(O)C(O)CCCC=CCCCCCCCCC)CCCCCCCCCCCCCCCCC
INCHIKEY: DPSVAJOUDJRIIM-UHFFFAOYSA-N
COMPOUNDCLASS: Cer_NP
RETENTIONTIME: 
COMMENT: 
Num Peaks: 2
604.52753	999
280.263491	50

NAME: Cer 18:1;O3/20:4
PRECURSORMZ: 624.4962
PRECURSORTYPE: [M+Na]+
IONMODE: Positive
FORMULA: C38H67NO4
SMILES: O=C(NC(CO)C(O)C(O)CCCC=CCCCCCCCCC)CCCCCCC=CCC=CCC=CCC=CCC
INCHIKEY: BALKVZXHIJAOEQ-UHFFFAOYSA-N
COMPOUNDCLASS: Cer_NP
RETENTIONTIME: 
COMMENT: 
Num Peaks: 2
624.49623	999
280.263491	50

NAME: Cer_d7 18:1;O2/32:0
PRECURSORMZ: 813.8046
PRECURSORTYPE: [M+HCOO]-
IONMODE: Negative
FORMULA: C50H92D7NO3
SMILES: OCC(NC(CCCCCCCCCCCCCCCCCCCCCCCCCCCCCCC)=O)C(\C=C\CCCCCCCCCCC(C(C([2H])([2H])[2H])([2H])[2H])([2H])[2H])O
INCHIKEY: MUQBXENBHQWWAY-GXZBWUKWSA-N
COMPOUNDCLASS: Cer_NS_d7
RETENTIONTIME: 
COMMENT: 
Num Peaks: 11
813.804636	100
767.799157	999
737.788592	300
735.772942	200
719.778027	200
520.509904	200
504.514989	500
478.499339	300
461.47279	300
270.281976	300
244.266326	300

NAME: Cer_d7 18:1;O2/32:0
PRECURSORMZ: 751.8031
PRECURSORTYPE: [M+H-H2O]+
IONMODE: Positive
FORMULA: C50H92D7NO3
SMILES: OCC(NC(CCCCCCCCCCCCCCCCCCCCCCCCCCCCCCC)=O)C(\C=C\CCCCCCCCCCC(C(C([2H])([2H])[2H])([2H])[2H])([2H])[2H])O
INCHIKEY: MUQBXENBHQWWAY-GXZBWUKWSA-N
COMPOUNDCLASS: Cer_NS_d7
RETENTIONTIME: 
COMMENT: 
Num Peaks: 6
751.803145	100
733.79258	100
480.513892	100
289.323078	200
271.312514	999
259.312514	200

NAME: Cer_d7 18:1;O2/32:0
PRECURSORMZ: 827.8203
PRECURSORTYPE: [M+CH3COO]-
IONMODE: Negative
FORMULA: C50H92D7NO3
SMILES: OCC(NC(CCCCCCCCCCCCCCCCCCCCCCCCCCCCCCC)=O)C(\C=C\CCCCCCCCCCC(C(C([2H])([2H])[2H])([2H])[2H])([2H])[2H])O
INCHIKEY: MUQBXENBHQWWAY-GXZBWUKWSA-N
COMPOUNDCLASS: Cer_NS_d7
RETENTIONTIME: 
COMMENT: 
Num Peaks: 11
827.820286	100
767.799157	999
737.788592	300
735.772942	200
719.778027	200
520.509904	200
504.514989	500
478.499339	300
461.47279	300
270.281976	300
244.266326	300

NAME: Cer_d7 18:1;O2/32:0
PRECURSORMZ: 767.7992
PRECURSORTYPE: [M-H]-
IONMODE: Negative
FORMULA: C50H92D7NO3
SMILES: OCC(NC(CCCCCCCCCCCCCCCCCCCCCCCCCCCCCCC)=O)C(\C=C\CCCCCCCCCCC(C(C([2H])([2H])[2H])([2H])[2H])([2H])[2H])O
INCHIKEY: MUQBXENBHQWWAY-GXZBWUKWSA-N
COMPOUNDCLASS: Cer_NS_d7
RETENTIONTIME: 
COMMENT: 
Num Peaks: 10
767.799157	999
737.788592	300
735.772942	200
719.778027	200
520.509904	200
504.514989	500
478.499339	300
461.47279	300
270.281976	300
244.266326	300

NAME: Cer_d7 18:1;O2/32:0
PRECURSORMZ: 769.8137
PRECURSORTYPE: [M+H]+
IONMODE: Positive
FORMULA: C50H92D7NO3
SMILES: OCC(NC(CCCCCCCCCCCCCCCCCCCCCCCCCCCCCCC)=O)C(\C=C\CCCCCCCCCCC(C(C([2H])([2H])[2H])([2H])[2H])([2H])[2H])O
INCHIKEY: MUQBXENBHQWWAY-GXZBWUKWSA-N
COMPOUNDCLASS: Cer_NS_d7
RETENTIONTIME: 
COMMENT: 
Num Peaks: 7
769.81371	50
751.803145	100
733.79258	100
480.513892	100
289.323078	200
271.312514	999
259.312514	200

NAME: Cer_d7 18:1;O2/32:0
PRECURSORMZ: 791.7957
PRECURSORTYPE: [M+Na]+
IONMODE: Positive
FORMULA: C50H92D7NO3
SMILES: OCC(NC(CCCCCCCCCCCCCCCCCCCCCCCCCCCCCCC)=O)C(\C=C\CCCCCCCCCCC(C(C([2H])([2H])[2H])([2H])[2H])([2H])[2H])O
INCHIKEY: MUQBXENBHQWWAY-GXZBWUKWSA-N
COMPOUNDCLASS: Cer_NS_d7
RETENTIONTIME: 
COMMENT: 
Num Peaks: 2
791.795654	999
271.312514	50

NAME: Cer 18:1;O2/18:0
PRECURSORMZ: 610.5416
PRECURSORTYPE: [M+HCOO]-
IONMODE: Negative
FORMULA: C36H71NO3
SMILES: O=C(NC(CO)C(O)C=CCCCCCCCCCCCCC)CCCCCCCCCCCCCCCCC
INCHIKEY: VODZWWMEJITOND-UHFFFAOYSA-N
COMPOUNDCLASS: Cer_NS
RETENTIONTIME: 
COMMENT: 
Num Peaks: 11
610.541598	100
564.536119	999
534.525554	300
532.509904	200
516.514989	200
324.290803	200
308.295888	500
282.280238	300
265.253689	300
263.238039	300
237.222389	300

NAME: Cer 18:1;O2/20:4
PRECURSORMZ: 630.5103
PRECURSORTYPE: [M+HCOO]-
IONMODE: Negative
FORMULA: C38H67NO3
SMILES: O=C(NC(CO)C(O)C=CCCCCCCCCCCCCC)CCCCCCC=CCC=CCC=CCC=CCC
INCHIKEY: VSYWEZHQFWHKJK-UHFFFAOYSA-N
COMPOUNDCLASS: Cer_NS
RETENTIONTIME: 
COMMENT: 
Num Peaks: 11
630.510298	100
584.504819	999
554.494254	300
552.478604	200
536.483689	200
344.259503	200
328.264588	500
302.248938	300
285.222389	300
263.238039	300
237.222389	300

NAME: Cer 18:1;O2/18:0
PRECURSORMZ: 548.5401
PRECURSORTYPE: [M+H-H2O]+
IONMODE: Positive
FORMULA: C36H71NO3
SMILES: O=C(NC(CO)C(O)C=CCCCCCCCCCCCCC)CCCCCCCCCCCCCCCCC
INCHIKEY: VODZWWMEJITOND-UHFFFAOYSA-N
COMPOUNDCLASS: Cer_NS
RETENTIONTIME: 
COMMENT: 
Num Peaks: 6
548.540107	100
530.529542	100
284.294791	100
282.279141	200
264.268576	999
252.268576	200

NAME: Cer 18:1;O2/20:4
PRECURSORMZ: 568.5088
PRECURSORTYPE: [M+H-H2O]+
IONMODE: Positive
FORMULA: C38H67NO3
SMILES: O=C(NC(CO)C(O)C=CCCCCCCCCCCCCC)CCCCCCC=CCC=CCC=CCC=CCC
INCHIKEY: VSYWEZHQFWHKJK-UHFFFAOYSA-N
COMPOUNDCLASS: Cer_NS
RETENTIONTIME: 
COMMENT: 
Num Peaks: 6
568.508807	100
550.498242	100
304.263491	100
282.279141	200
264.268576	999
252.268576	200

NAME: Cer 18:1;O2/18:0
PRECURSORMZ: 624.5572
PRECURSORTYPE: [M+CH3COO]-
IONMODE: Negative
FORMULA: C36H71NO3
SMILES: O=C(NC(CO)C(O)C=CCCCCCCCCCCCCC)CCCCCCCCCCCCCCCCC
INCHIKEY: VODZWWMEJITOND-UHFFFAOYSA-N
COMPOUNDCLASS: Cer_NS
RETENTIONTIME: 
COMMENT: 
Num Peaks: 11
624.557248	100
564.536119	999
534.525554	300
532.509904	200
516.514989	200
324.290803	200
308.295888	500
282.280238	300
265.253689	300
263.238039	300
237.222389	300

NAME: Cer 18:1;O2/20:4
PRECURSORMZ: 644.5259
PRECURSORTYPE: [M+CH3COO]-
IONMODE: Negative
FORMULA: C38H67NO3
SMILES: O=C(NC(CO)C(O)C=CCCCCCCCCCCCCC)CCCCCCC=CCC=CCC=CCC=CCC
INCHIKEY: VSYWEZHQFWHKJK-UHFFFAOYSA-N
COMPOUNDCLASS: Cer_NS
RETENTIONTIME: 
COMMENT: 
Num Peaks: 11
644.525948	100
584.504819	999
554.494254	300
552.478604	200
536.483689	200
344.259503	200
328.264588	500
302.248938	300
285.222389	300
263.238039	300
237.222389	300

NAME: Cer 18:1;O2/18:0
PRECURSORMZ: 564.5361
PRECURSORTYPE: [M-H]-
IONMODE: Negative
FORMULA: C36H71NO3
SMILES: O=C(NC(CO)C(O)C=CCCCCCCCCCCCCC)CCCCCCCCCCCCCCCCC
INCHIKEY: VODZWWMEJITOND-UHFFFAOYSA-N
COMPOUNDCLASS: Cer_NS
RETENTIONTIME: 
COMMENT: 
Num Peaks: 10
564.536119	999
534.525554	300
532.509904	200
516.514989	200
324.290803	200
308.295888	500
282.280238	300
265.253689	300
263.238039	300
237.222389	300

NAME: Cer 18:1;O2/20:4
PRECURSORMZ: 584.5048
PRECURSORTYPE: [M-H]-
IONMODE: Negative
FORMULA: C38H67NO3
SMILES: O=C(NC(CO)C(O)C=CCCCCCCCCCCCCC)CCCCCCC=CCC=CCC=CCC=CCC
INCHIKEY: VSYWEZHQFWHKJK-UHFFFAOYSA-N
COMPOUNDCLASS: Cer_NS
RETENTIONTIME: 
COMMENT: 
Num Peaks: 10
584.504819	999
554.494254	300
552.478604	200
536.483689	200
344.259503	200
328.264588	500
302.248938	300
285.222389	300
263.238039	300
237.222389	300

NAME: Cer 18:1;O2/18:0
PRECURSORMZ: 566.5507
PRECURSORTYPE: [M+H]+
IONMODE: Positive
FORMULA: C36H71NO3
SMILES: O=C(NC(CO)C(O)C=CCCCCCCCCCCCCC)CCCCCCCCCCCCCCCCC
INCHIKEY: VODZWWMEJITOND-UHFFFAOYSA-N
COMPOUNDCLASS: Cer_NS
RETENTIONTIME: 
COMMENT: 
Num Peaks: 7
566.550672	50
548.540107	100
530.529542	100
284.294791	100
282.279141	200
264.268576	999
252.268576	200

NAME: Cer 18:1;O2/20:4
PRECURSORMZ: 586.5194
PRECURSORTYPE: [M+H]+
IONMODE: Positive
FORMULA: C38H67NO3
SMILES: O=C(NC(CO)C(O)C=CCCCCCCCCCCCCC)CCCCCCC=CCC=CCC=CCC=CCC
INCHIKEY: VSYWEZHQFWHKJK-UHFFFAOYSA-N
COMPOUNDCLASS: Cer_NS
RETENTIONTIME: 
COMMENT: 
Num Peaks: 7
586.519371	50
568.508807	100
550.498242	100
304.263491	100
282.279141	200
264.268576	999
252.268576	200

NAME: Cer 18:1;O2/18:0
PRECURSORMZ: 588.5326
PRECURSORTYPE: [M+Na]+
IONMODE: Positive
FORMULA: C36H71NO3
SMILES: O=C(NC(CO)C(O)C=CCCCCCCCCCCCCC)CCCCCCCCCCCCCCCCC
INCHIKEY: VODZWWMEJITOND-UHFFFAOYSA-N
COMPOUNDCLASS: Cer_NS
RETENTIONTIME: 
COMMENT: 
Num Peaks: 2
588.532616	999
264.268576	50

NAME: Cer 18:1;O2/20:4
PRECURSORMZ: 608.5013
PRECURSORTYPE: [M+Na]+
IONMODE: Positive
FORMULA: C38H67NO3
SMILES: O=C(NC(CO)C(O)C=CCCCCCCCCCCCCC)CCCCCCC=CCC=CCC=CCC=CCC
INCHIKEY: VSYWEZHQFWHKJK-UHFFFAOYSA-N
COMPOUNDCLASS: Cer_NS
RETENTIONTIME: 
COMMENT: 
Num Peaks: 2
608.501316	999
264.268576	50

NAME: SM 18:0;O2/18:1
PRECURSORMZ: 775.5971
PRECURSORTYPE: [M+HCOO]-
IONMODE: Negative
FORMULA: C41H83N2O6P
SMILES: O=C(NC(COP(=O)([O-])OCC[N+](C)(C)C)C(O)CCCCCCCCCCCCCCC)CCCCCCCC=CCCCCCCCC
INCHIKEY: XYLWKHKCYHMVMA-UHFFFAOYSA-N
COMPOUNDCLASS: SM
RETENTIONTIME: 
COMMENT: 
Num Peaks: 5
775.597078	100
715.575949	999
451.330633	10
168.043118	200
78.959054	50

NAME: SM 18:0;O2/20:4
PRECURSORMZ: 797.5814
PRECURSORTYPE: [M+HCOO]-
IONMODE: Negative
FORMULA: C43H81N2O6P
SMILES: O=C(NC(COP(=O)([O-])OCC[N+](C)(C)C)C(O)CCCCCCCCCCCCCCC)CCCCCCC=CCC=CCC=CCC=CCC
INCHIKEY: RKJYQXQPHRYLRL-UHFFFAOYSA-N
COMPOUNDCLASS: SM
RETENTIONTIME: 
COMMENT: 
Num Peaks: 5
797.581428	100
737.560298	999
451.330633	10
168.043118	200
78.959054	50

NAME: SM 18:1;O2/18:0
PRECURSORMZ: 775.5971
PRECURSORTYPE: [M+HCOO]-
IONMODE: Negative
FORMULA: C41H83N2O6P
SMILES: O=C(NC(COP(=O)([O-])OCC[N+](C)(C)C)C(O)C=CCCCCCCCCCCCCC)CCCCCCCCCCCCCCCCC
INCHIKEY: LKQLRGMMMAHREN-UHFFFAOYSA-N
COMPOUNDCLASS: SM
RETENTIONTIME: 
COMMENT: 
Num Peaks: 5
775.597078	100
715.575949	999
449.314983	10
168.043118	200
78.959054	50

NAME: SM 18:1;O2/20:4
PRECURSORMZ: 795.5658
PRECURSORTYPE: [M+HCOO]-
IONMODE: Negative
FORMULA: C43H79N2O6P
SMILES: O=C(NC(COP(=O)([O-])OCC[N+](C)(C)C)C(O)C=CCCCCCCCCCCCCC)CCCCCCC=CCC=CCC=CCC=CCC
INCHIKEY: SNVZBJBLBAYUCY-UHFFFAOYSA-N
COMPOUNDCLASS: SM
RETENTIONTIME: 
COMMENT: 
Num Peaks: 5
795.565778	100
735.544648	999
449.314983	10
168.043118	200
78.959054	50

NAME: SM 18:0;O2/18:1
PRECURSORMZ: 789.6127
PRECURSORTYPE: [M+CH3COO]-
IONMODE: Negative
FORMULA: C41H83N2O6P
SMILES: O=C(NC(COP(=O)([O-])OCC[N+](C)(C)C)C(O)CCCCCCCCCCCCCCC)CCCCCCCC=CCCCCCCCC
INCHIKEY: XYLWKHKCYHMVMA-UHFFFAOYSA-N
COMPOUNDCLASS: SM
RETENTIONTIME: 
COMMENT: 
Num Peaks: 5
789.612728	100
715.575949	999
451.330633	10
168.043118	200
78.959054	50

NAME: SM 18:0;O2/20:4
PRECURSORMZ: 811.5971
PRECURSORTYPE: [M+CH3COO]-
IONMODE: Negative
FORMULA: C43H81N2O6P
SMILES: O=C(NC(COP(=O)([O-])OCC[N+](C)(C)C)C(O)CCCCCCCCCCCCCCC)CCCCCCC=CCC=CCC=CCC=CCC
INCHIKEY: RKJYQXQPHRYLRL-UHFFFAOYSA-N
COMPOUNDCLASS: SM
RETENTIONTIME: 
COMMENT: 
Num Peaks: 5
811.597078	100
737.560298	999
451.330633	10
168.043118	200
78.959054	50

NAME: SM 18:1;O2/18:0
PRECURSORMZ: 789.6127
PRECURSORTYPE: [M+CH3COO]-
IONMODE: Negative
FORMULA: C41H83N2O6P
SMILES: O=C(NC(COP(=O)([O-])OCC[N+](C)(C)C)C(O)C=CCCCCCCCCCCCCC)CCCCCCCCCCCCCCCCC
INCHIKEY: LKQLRGMMMAHREN-UHFFFAOYSA-N
COMPOUNDCLASS: SM
RETENTIONTIME: 
COMMENT: 
Num Peaks: 5
789.612728	100
715.575949	999
449.314983	10
168.043118	200
78.959054	50

NAME: SM 18:1;O2/20:4
PRECURSORMZ: 809.5814
PRECURSORTYPE: [M+CH3COO]-
IONMODE: Negative
FORMULA: C43H79N2O6P
SMILES: O=C(NC(COP(=O)([O-])OCC[N+](C)(C)C)C(O)C=CCCCCCCCCCCCCC)CCCCCCC=CCC=CCC=CCC=CCC
INCHIKEY: SNVZBJBLBAYUCY-UHFFFAOYSA-N
COMPOUNDCLASS: SM
RETENTIONTIME: 
COMMENT: 
Num Peaks: 5
809.581428	100
735.544648	999
449.314983	10
168.043118	200
78.959054	50

NAME: SM 18:0;O2/18:1
PRECURSORMZ: 791.592
PRECURSORTYPE: [M+HCO3]-
IONMODE: Negative
FORMULA: C41H83N2O6P
SMILES: O=C(NC(COP(=O)([O-])OCC[N+](C)(C)C)C(O)CCCCCCCCCCCCCCC)CCCCCCCC=CCCCCCCCC
INCHIKEY: XYLWKHKCYHMVMA-UHFFFAOYSA-N
COMPOUNDCLASS: SM
RETENTIONTIME: 
COMMENT: 
Num Peaks: 6
791.591992	50
729.591599	150
670.518099	600
644.502449	999
430.272784	300
182.058768	200

NAME: SM 18:0;O2/20:4
PRECURSORMZ: 813.5763
PRECURSORTYPE: [M+HCO3]-
IONMODE: Negative
FORMULA: C43H81N2O6P
SMILES: O=C(NC(COP(=O)([O-])OCC[N+](C)(C)C)C(O)CCCCCCCCCCCCCCC)CCCCCCC=CCC=CCC=CCC=CCC
INCHIKEY: RKJYQXQPHRYLRL-UHFFFAOYSA-N
COMPOUNDCLASS: SM
RETENTIONTIME: 
COMMENT: 
Num Peaks: 6
813.576342	50
751.575949	150
692.502449	600
666.486799	999
452.257134	300
182.058768	200

NAME: SM 18:1;O2/18:0
PRECURSORMZ: 791.592
PRECURSORTYPE: [M+HCO3]-
IONMODE: Negative
FORMULA: C41H83N2O6P
SMILES: O=C(NC(COP(=O)([O-])OCC[N+](C)(C)C)C(O)C=CCCCCCCCCCCCCC)CCCCCCCCCCCCCCCCC
INCHIKEY: LKQLRGMMMAHREN-UHFFFAOYSA-N
COMPOUNDCLASS: SM
RETENTIONTIME: 
COMMENT: 
Num Peaks: 6
791.591992	50
729.591599	150
670.518099	600
644.502449	999
432.288434	300
182.058768	200

NAME: SM 18:1;O2/20:4
PRECURSORMZ: 811.5607
PRECURSORTYPE: [M+HCO3]-
IONMODE: Negative
FORMULA: C43H79N2O6P
SMILES: O=C(NC(COP(=O)([O-])OCC[N+](C)(C)C)C(O)C=CCCCCCCCCCCCCC)CCCCCCC=CCC=CCC=CCC=CCC
INCHIKEY: SNVZBJBLBAYUCY-UHFFFAOYSA-N
COMPOUNDCLASS: SM
RETENTIONTIME: 
COMMENT: 
Num Peaks: 6
811.560692	50
749.560298	150
690.486799	600
664.471149	999
452.257134	300
182.058768	200

NAME: SM 18:0;O2/18:1
PRECURSORMZ: 731.6062
PRECURSORTYPE: [M+H]+
IONMODE: Positive
FORMULA: C41H83N2O6P
SMILES: O=C(NC(COP(=O)([O-])OCC[N+](C)(C)C)C(O)CCCCCCCCCCCCCCC)CCCCCCCC=CCCCCCCCC
INCHIKEY: XYLWKHKCYHMVMA-UHFFFAOYSA-N
COMPOUNDCLASS: SM
RETENTIONTIME: 
COMMENT: 
Num Peaks: 4
731.606151	200
713.595587	10
266.284227	5
184.073321	999

NAME: SM 18:0;O2/20:4
PRECURSORMZ: 753.5905
PRECURSORTYPE: [M+H]+
IONMODE: Positive
FORMULA: C43H81N2O6P
SMILES: O=C(NC(COP(=O)([O-])OCC[N+](C)(C)C)C(O)CCCCCCCCCCCCCCC)CCCCCCC=CCC=CCC=CCC=CCC
INCHIKEY: RKJYQXQPHRYLRL-UHFFFAOYSA-N
COMPOUNDCLASS: SM
RETENTIONTIME: 
COMMENT: 
Num Peaks: 4
753.590501	200
735.579937	10
266.284227	5
184.073321	999

NAME: SM 18:1;O2/18:0
PRECURSORMZ: 731.6062
PRECURSORTYPE: [M+H]+
IONMODE: Positive
FORMULA: C41H83N2O6P
SMILES: O=C(NC(COP(=O)([O-])OCC[N+](C)(C)C)C(O)C=CCCCCCCCCCCCCC)CCCCCCCCCCCCCCCCC
INCHIKEY: LKQLRGMMMAHREN-UHFFFAOYSA-N
COMPOUNDCLASS: SM
RETENTIONTIME: 
COMMENT: 
Num Peaks: 4
731.606151	200
713.595587	10
264.268576	5
184.073321	999

NAME: SM 18:1;O2/20:4
PRECURSORMZ: 751.5749
PRECURSORTYPE: [M+H]+
IONMODE: Positive
FORMULA: C43H79N2O6P
SMILES: O=C(NC(COP(=O)([O-])OCC[N+](C)(C)C)C(O)C=CCCCCCCCCCCCCC)CCCCCCC=CCC=CCC=CCC=CCC
INCHIKEY: SNVZBJBLBAYUCY-UHFFFAOYSA-N
COMPOUNDCLASS: SM
RETENTIONTIME: 
COMMENT: 
Num Peaks: 4
751.574851	200
733.564287	10
264.268576	5
184.073321	999

NAME: SM 36:0;O2
PRECURSORMZ: 755.6037
PRECURSORTYPE: [M+Na]+
IONMODE: Positive
FORMULA: C41H85N2O6P
SMILES: O=C(NC(COP(=O)([O-])OCC[N+](C)(C)C)C(O)CCCCCCCCCCCCCCC)CCCCCCCCCCCCCCCCC
INCHIKEY: JCELSEVNSMXGKA-UHFFFAOYSA-N
COMPOUNDCLASS: SM
RETENTIONTIME: 
COMMENT: 
Num Peaks: 4
755.603746	999
696.530246	800
572.537701	999
532.545192	200

NAME: SM 36:1;O2
PRECURSORMZ: 753.5881
PRECURSORTYPE: [M+Na]+
IONMODE: Positive
FORMULA: C41H83N2O6P
SMILES: O=C(NC(COP(=O)([O-])OCC[N+](C)(C)C)C(O)CCCCCCCCCCCCCCC)CCCCCCCC=CCCCCCCCC
INCHIKEY: XYLWKHKCYHMVMA-UHFFFAOYSA-N
COMPOUNDCLASS: SM
RETENTIONTIME: 
COMMENT: 
Num Peaks: 4
753.588096	999
694.514596	800
570.522051	999
530.529542	200

NAME: SM 38:4;O2
PRECURSORMZ: 775.5724
PRECURSORTYPE: [M+Na]+
IONMODE: Positive
FORMULA: C43H81N2O6P
SMILES: O=C(NC(COP(=O)([O-])OCC[N+](C)(C)C)C(O)CCCCCCCCCCCCCCC)CCCCCCC=CCC=CCC=CCC=CCC
INCHIKEY: RKJYQXQPHRYLRL-UHFFFAOYSA-N
COMPOUNDCLASS: SM
RETENTIONTIME: 
COMMENT: 
Num Peaks: 4
775.572446	999
716.498946	800
592.506401	999
552.513892	200

NAME: SM 36:2;O2
PRECURSORMZ: 751.5724
PRECURSORTYPE: [M+Na]+
IONMODE: Positive
FORMULA: C41H81N2O6P
SMILES: O=C(NC(COP(=O)([O-])OCC[N+](C)(C)C)C(O)C=CCCCCCCCCCCCCC)CCCCCCCC=CCCCCCCCC
INCHIKEY: NBEADXWAAWCCDG-UHFFFAOYSA-N
COMPOUNDCLASS: SM
RETENTIONTIME: 
COMMENT: 
Num Peaks: 4
751.572446	999
692.498946	800
568.506401	999
528.513892	200

NAME: SM 38:5;O2
PRECURSORMZ: 773.5568
PRECURSORTYPE: [M+Na]+
IONMODE: Positive
FORMULA: C43H79N2O6P
SMILES: O=C(NC(COP(=O)([O-])OCC[N+](C)(C)C)C(O)C=CCCCCCCCCCCCCC)CCCCCCC=CCC=CCC=CCC=CCC
INCHIKEY: SNVZBJBLBAYUCY-UHFFFAOYSA-N
COMPOUNDCLASS: SM
RETENTIONTIME: 
COMMENT: 
Num Peaks: 4
773.556796	999
714.483296	800
590.490751	999
550.498242	200

