NAME: CerP 14:0;O2/18:1
PRECURSORMZ: 588.4398
PRECURSORTYPE: [M-H]-
IONMODE: Negative
FORMULA: C32H64NO6P
SMILES: O=C(NC(COP(=O)(O)O)C(O)CCCCCCCCCCC)CCCCCCCC=CCCCCCCCC
INCHIKEY: MKJOCAJUBFAWHJ-UHFFFAOYSA-N
COMPOUNDCLASS: CerP
RETENTIONTIME: 
COMMENT: 
Num Peaks: 6
588.439849	10
570.429284	100
324.194533	200
306.183969	200
96.969619	999
78.959054	999

NAME: CerP 14:0;O2/20:4
PRECURSORMZ: 610.4242
PRECURSORTYPE: [M-H]-
IONMODE: Negative
FORMULA: C34H62NO6P
SMILES: O=C(NC(COP(=O)(O)O)C(O)CCCCCCCCCCC)CCCCCCC=CCC=CCC=CCC=CCC
INCHIKEY: WNKWQFFVXQXQPR-UHFFFAOYSA-N
COMPOUNDCLASS: CerP
RETENTIONTIME: 
COMMENT: 
Num Peaks: 6
610.424199	10
592.413634	100
324.194533	200
306.183969	200
96.969619	999
78.959054	999

NAME: CerP 18:1;O2/14:0
PRECURSORMZ: 588.4398
PRECURSORTYPE: [M-H]-
IONMODE: Negative
FORMULA: C32H64NO6P
SMILES: O=C(NC(COP(=O)(O)O)C(O)C=CCCCCCCCCCCCCC)CCCCCCCCCCCCC
INCHIKEY: SKNPSPOYFIEDJT-UHFFFAOYSA-N
COMPOUNDCLASS: CerP
RETENTIONTIME: 
COMMENT: 
Num Peaks: 6
588.439849	10
570.429284	100
378.241484	200
360.230919	200
96.969619	999
78.959054	999

NAME: CerP 18:1;O2/20:4
PRECURSORMZ: 664.4711
PRECURSORTYPE: [M-H]-
IONMODE: Negative
FORMULA: C38H68NO6P
SMILES: O=C(NC(COP(=O)(O)O)C(O)C=CCCCCCCCCCCCCC)CCCCCCC=CCC=CCC=CCC=CCC
INCHIKEY: IWGQFIDGCLIYPP-UHFFFAOYSA-N
COMPOUNDCLASS: CerP
RETENTIONTIME: 
COMMENT: 
Num Peaks: 6
664.471149	10
646.460584	100
378.241484	200
360.230919	200
96.969619	999
78.959054	999

NAME: CerP 14:0;O2/18:1
PRECURSORMZ: 590.4544
PRECURSORTYPE: [M+H]+
IONMODE: Positive
FORMULA: C32H64NO6P
SMILES: O=C(NC(COP(=O)(O)O)C(O)CCCCCCCCCCC)CCCCCCCC=CCCCCCCCC
INCHIKEY: MKJOCAJUBFAWHJ-UHFFFAOYSA-N
COMPOUNDCLASS: CerP
RETENTIONTIME: 
COMMENT: 
Num Peaks: 6
590.454402	999
572.443837	250
510.488071	200
492.477507	200
474.466942	200
210.221626	300

NAME: CerP 14:0;O2/20:4
PRECURSORMZ: 612.4388
PRECURSORTYPE: [M+H]+
IONMODE: Positive
FORMULA: C34H62NO6P
SMILES: O=C(NC(COP(=O)(O)O)C(O)CCCCCCCCCCC)CCCCCCC=CCC=CCC=CCC=CCC
INCHIKEY: WNKWQFFVXQXQPR-UHFFFAOYSA-N
COMPOUNDCLASS: CerP
RETENTIONTIME: 
COMMENT: 
Num Peaks: 6
612.438752	999
594.428187	250
532.472421	200
514.461857	200
496.451292	200
210.221626	300

NAME: CerP 18:1;O2/14:0
PRECURSORMZ: 590.4544
PRECURSORTYPE: [M+H]+
IONMODE: Positive
FORMULA: C32H64NO6P
SMILES: O=C(NC(COP(=O)(O)O)C(O)C=CCCCCCCCCCCCCC)CCCCCCCCCCCCC
INCHIKEY: SKNPSPOYFIEDJT-UHFFFAOYSA-N
COMPOUNDCLASS: CerP
RETENTIONTIME: 
COMMENT: 
Num Peaks: 6
590.454402	999
572.443837	250
510.488071	200
492.477507	200
474.466942	200
264.268576	300

NAME: CerP 18:1;O2/20:4
PRECURSORMZ: 666.4857
PRECURSORTYPE: [M+H]+
IONMODE: Positive
FORMULA: C38H68NO6P
SMILES: O=C(NC(COP(=O)(O)O)C(O)C=CCCCCCCCCCCCCC)CCCCCCC=CCC=CCC=CCC=CCC
INCHIKEY: IWGQFIDGCLIYPP-UHFFFAOYSA-N
COMPOUNDCLASS: CerP
RETENTIONTIME: 
COMMENT: 
Num Peaks: 6
666.485702	999
648.475137	250
586.519371	200
568.508807	200
550.498242	200
264.268576	300

NAME: Cer 14:0;O3/18:1;2OH,3OH
PRECURSORMZ: 602.4637
PRECURSORTYPE: [M+HCOO]-
IONMODE: Negative
FORMULA: C32H63NO6
SMILES: O=C(NC(CO)C(O)C(O)CCCCCCCCCC)C(O)C(O)CCCCCC=CCCCCCCCC
INCHIKEY: RSGOKNCUKYMECX-UHFFFAOYSA-N
COMPOUNDCLASS: Cer_ABP
RETENTIONTIME: 
COMMENT: 
Num Peaks: 4
602.463742	10
556.458262	999
538.447698	50
318.228597	999

NAME: Cer 14:0;O3/20:4;2OH,3OH
PRECURSORMZ: 624.4481
PRECURSORTYPE: [M+HCOO]-
IONMODE: Negative
FORMULA: C34H61NO6
SMILES: O=C(NC(CO)C(O)C(O)CCCCCCCCCC)C(O)C(O)CCCCC=CCC=CCC=CCC=CCC
INCHIKEY: WPSBQIAVHAWJGP-UHFFFAOYSA-N
COMPOUNDCLASS: Cer_ABP
RETENTIONTIME: 
COMMENT: 
Num Peaks: 4
624.448092	10
578.442612	999
560.432048	50
318.228597	999

NAME: Cer 18:1;O3/14:0;2OH,3OH
PRECURSORMZ: 602.4637
PRECURSORTYPE: [M+HCOO]-
IONMODE: Negative
FORMULA: C32H63NO6
SMILES: O=C(NC(CO)C(O)C(O)CCCC=CCCCCCCCCC)C(O)C(O)CCCCCCCCCCC
INCHIKEY: NGSSLOQBUVKSIA-UHFFFAOYSA-N
COMPOUNDCLASS: Cer_ABP
RETENTIONTIME: 
COMMENT: 
Num Peaks: 4
602.463742	10
556.458262	999
538.447698	50
372.275547	999

NAME: Cer 18:1;O3/20:4;2OH,3OH
PRECURSORMZ: 678.495
PRECURSORTYPE: [M+HCOO]-
IONMODE: Negative
FORMULA: C38H67NO6
SMILES: O=C(NC(CO)C(O)C(O)CCCC=CCCCCCCCCC)C(O)C(O)CCCCC=CCC=CCC=CCC=CCC
INCHIKEY: RCRZNNBNMHGTME-UHFFFAOYSA-N
COMPOUNDCLASS: Cer_ABP
RETENTIONTIME: 
COMMENT: 
Num Peaks: 4
678.495042	10
632.489562	999
614.478998	50
372.275547	999

NAME: Cer 14:0;O3/18:1;2OH,3OH
PRECURSORMZ: 616.4794
PRECURSORTYPE: [M+CH3COO]-
IONMODE: Negative
FORMULA: C32H63NO6
SMILES: O=C(NC(CO)C(O)C(O)CCCCCCCCCC)C(O)C(O)CCCCCC=CCCCCCCCC
INCHIKEY: RSGOKNCUKYMECX-UHFFFAOYSA-N
COMPOUNDCLASS: Cer_ABP
RETENTIONTIME: 
COMMENT: 
Num Peaks: 4
616.479392	10
556.458262	999
538.447698	50
318.228597	999

NAME: Cer 14:0;O3/20:4;2OH,3OH
PRECURSORMZ: 638.4637
PRECURSORTYPE: [M+CH3COO]-
IONMODE: Negative
FORMULA: C34H61NO6
SMILES: O=C(NC(CO)C(O)C(O)CCCCCCCCCC)C(O)C(O)CCCCC=CCC=CCC=CCC=CCC
INCHIKEY: WPSBQIAVHAWJGP-UHFFFAOYSA-N
COMPOUNDCLASS: Cer_ABP
RETENTIONTIME: 
COMMENT: 
Num Peaks: 4
638.463742	10
578.442612	999
560.432048	50
318.228597	999

NAME: Cer 18:1;O3/14:0;2OH,3OH
PRECURSORMZ: 616.4794
PRECURSORTYPE: [M+CH3COO]-
IONMODE: Negative
FORMULA: C32H63NO6
SMILES: O=C(NC(CO)C(O)C(O)CCCC=CCCCCCCCCC)C(O)C(O)CCCCCCCCCCC
INCHIKEY: NGSSLOQBUVKSIA-UHFFFAOYSA-N
COMPOUNDCLASS: Cer_ABP
RETENTIONTIME: 
COMMENT: 
Num Peaks: 4
616.479392	10
556.458262	999
538.447698	50
372.275547	999

NAME: Cer 18:1;O3/20:4;2OH,3OH
PRECURSORMZ: 692.5107
PRECURSORTYPE: [M+CH3COO]-
IONMODE: Negative
FORMULA: C38H67NO6
SMILES: O=C(NC(CO)C(O)C(O)CCCC=CCCCCCCCCC)C(O)C(O)CCCCC=CCC=CCC=CCC=CCC
INCHIKEY: RCRZNNBNMHGTME-UHFFFAOYSA-N
COMPOUNDCLASS: Cer_ABP
RETENTIONTIME: 
COMMENT: 
Num Peaks: 4
692.510692	10
632.489562	999
614.478998	50
372.275547	999

NAME: Cer 14:0;O3/18:1;2OH,3OH
PRECURSORMZ: 556.4583
PRECURSORTYPE: [M-H]-
IONMODE: Negative
FORMULA: C32H63NO6
SMILES: O=C(NC(CO)C(O)C(O)CCCCCCCCCC)C(O)C(O)CCCCCC=CCCCCCCCC
INCHIKEY: RSGOKNCUKYMECX-UHFFFAOYSA-N
COMPOUNDCLASS: Cer_ABP
RETENTIONTIME: 
COMMENT: 
Num Peaks: 3
556.458262	999
538.447698	50
318.228597	999

NAME: Cer 14:0;O3/20:4;2OH,3OH
PRECURSORMZ: 578.4426
PRECURSORTYPE: [M-H]-
IONMODE: Negative
FORMULA: C34H61NO6
SMILES: O=C(NC(CO)C(O)C(O)CCCCCCCCCC)C(O)C(O)CCCCC=CCC=CCC=CCC=CCC
INCHIKEY: WPSBQIAVHAWJGP-UHFFFAOYSA-N
COMPOUNDCLASS: Cer_ABP
RETENTIONTIME: 
COMMENT: 
Num Peaks: 3
578.442612	999
560.432048	50
318.228597	999

NAME: Cer 18:1;O3/14:0;2OH,3OH
PRECURSORMZ: 556.4583
PRECURSORTYPE: [M-H]-
IONMODE: Negative
FORMULA: C32H63NO6
SMILES: O=C(NC(CO)C(O)C(O)CCCC=CCCCCCCCCC)C(O)C(O)CCCCCCCCCCC
INCHIKEY: NGSSLOQBUVKSIA-UHFFFAOYSA-N
COMPOUNDCLASS: Cer_ABP
RETENTIONTIME: 
COMMENT: 
Num Peaks: 3
556.458262	999
538.447698	50
372.275547	999

NAME: Cer 18:1;O3/20:4;2OH,3OH
PRECURSORMZ: 632.4896
PRECURSORTYPE: [M-H]-
IONMODE: Negative
FORMULA: C38H67NO6
SMILES: O=C(NC(CO)C(O)C(O)CCCC=CCCCCCCCCC)C(O)C(O)CCCCC=CCC=CCC=CCC=CCC
INCHIKEY: RCRZNNBNMHGTME-UHFFFAOYSA-N
COMPOUNDCLASS: Cer_ABP
RETENTIONTIME: 
COMMENT: 
Num Peaks: 3
632.489562	999
614.478998	50
372.275547	999

NAME: Cer 14:0;O3/18:1;2OH,3OH
PRECURSORMZ: 558.4728
PRECURSORTYPE: [M+H]+
IONMODE: Positive
FORMULA: C32H63NO6
SMILES: O=C(NC(CO)C(O)C(O)CCCCCCCCCC)C(O)C(O)CCCCCC=CCCCCCCCC
INCHIKEY: RSGOKNCUKYMECX-UHFFFAOYSA-N
COMPOUNDCLASS: Cer_ABP
RETENTIONTIME: 
COMMENT: 
Num Peaks: 10
558.472815	300
540.46225	999
522.451686	400
504.441121	100
356.279535	100
314.26897	100
262.23767	100
244.227106	600
226.216541	400
208.205976	400

NAME: Cer 14:0;O3/20:4;2OH,3OH
PRECURSORMZ: 580.4572
PRECURSORTYPE: [M+H]+
IONMODE: Positive
FORMULA: C34H61NO6
SMILES: O=C(NC(CO)C(O)C(O)CCCCCCCCCC)C(O)C(O)CCCCC=CCC=CCC=CCC=CCC
INCHIKEY: WPSBQIAVHAWJGP-UHFFFAOYSA-N
COMPOUNDCLASS: Cer_ABP
RETENTIONTIME: 
COMMENT: 
Num Peaks: 10
580.457165	300
562.4466	999
544.436036	400
526.425471	100
378.263885	100
336.25332	100
262.23767	100
244.227106	600
226.216541	400
208.205976	400

NAME: Cer 18:1;O3/14:0;2OH,3OH
PRECURSORMZ: 558.4728
PRECURSORTYPE: [M+H]+
IONMODE: Positive
FORMULA: C32H63NO6
SMILES: O=C(NC(CO)C(O)C(O)CCCC=CCCCCCCCCC)C(O)C(O)CCCCCCCCCCC
INCHIKEY: NGSSLOQBUVKSIA-UHFFFAOYSA-N
COMPOUNDCLASS: Cer_ABP
RETENTIONTIME: 
COMMENT: 
Num Peaks: 10
558.472815	300
540.46225	999
522.451686	400
504.441121	100
316.28462	100
302.232585	100
298.274056	600
280.263491	400
262.252926	400
260.22202	100

NAME: Cer 18:1;O3/20:4;2OH,3OH
PRECURSORMZ: 634.5041
PRECURSORTYPE: [M+H]+
IONMODE: Positive
FORMULA: C38H67NO6
SMILES: O=C(NC(CO)C(O)C(O)CCCC=CCCCCCCCCC)C(O)C(O)CCCCC=CCC=CCC=CCC=CCC
INCHIKEY: RCRZNNBNMHGTME-UHFFFAOYSA-N
COMPOUNDCLASS: Cer_ABP
RETENTIONTIME: 
COMMENT: 
Num Peaks: 10
634.504115	300
616.493551	999
598.482986	400
580.472421	100
378.263885	100
336.25332	100
316.28462	100
298.274056	600
280.263491	400
262.252926	400

NAME: Cer 14:0;O2/18:1;2OH
PRECURSORMZ: 570.4739
PRECURSORTYPE: [M+HCOO]-
IONMODE: Negative
FORMULA: C32H63NO4
SMILES: O=C(NC(CO)C(O)CCCCCCCCCCC)C(O)CCCCCCC=CCCCCCCCC
INCHIKEY: BPBHMMGJTZLKOX-UHFFFAOYSA-N
COMPOUNDCLASS: Cer_ADS
RETENTIONTIME: 
COMMENT: 
Num Peaks: 13
570.473912	10
524.468433	999
506.457868	50
492.442218	50
476.447304	50
279.232954	50
251.238039	200
244.228203	100
240.196903	100
226.217638	50
222.186338	50
212.201988	100
183.175439	100

NAME: Cer 14:0;O2/20:4;2OH
PRECURSORMZ: 592.4583
PRECURSORTYPE: [M+HCOO]-
IONMODE: Negative
FORMULA: C34H61NO4
SMILES: O=C(NC(CO)C(O)CCCCCCCCCCC)C(O)CCCCCC=CCC=CCC=CCC=CCC
INCHIKEY: FJVQDCGDDQBLPJ-UHFFFAOYSA-N
COMPOUNDCLASS: Cer_ADS
RETENTIONTIME: 
COMMENT: 
Num Peaks: 13
592.458262	10
546.452783	999
528.442218	50
514.426568	50
498.431654	50
301.217304	50
273.222389	200
244.228203	100
240.196903	100
226.217638	50
222.186338	50
212.201988	100
183.175439	100

NAME: Cer 14:0;O2/18:1;2OH
PRECURSORMZ: 584.4896
PRECURSORTYPE: [M+CH3COO]-
IONMODE: Negative
FORMULA: C32H63NO4
SMILES: O=C(NC(CO)C(O)CCCCCCCCCCC)C(O)CCCCCCC=CCCCCCCCC
INCHIKEY: BPBHMMGJTZLKOX-UHFFFAOYSA-N
COMPOUNDCLASS: Cer_ADS
RETENTIONTIME: 
COMMENT: 
Num Peaks: 13
584.489562	10
524.468433	999
506.457868	50
492.442218	50
476.447304	50
279.232954	50
251.238039	200
244.228203	100
240.196903	100
226.217638	50
222.186338	50
212.201988	100
183.175439	100

NAME: Cer 14:0;O2/20:4;2OH
PRECURSORMZ: 606.4739
PRECURSORTYPE: [M+CH3COO]-
IONMODE: Negative
FORMULA: C34H61NO4
SMILES: O=C(NC(CO)C(O)CCCCCCCCCCC)C(O)CCCCCC=CCC=CCC=CCC=CCC
INCHIKEY: FJVQDCGDDQBLPJ-UHFFFAOYSA-N
COMPOUNDCLASS: Cer_ADS
RETENTIONTIME: 
COMMENT: 
Num Peaks: 13
606.473912	10
546.452783	999
528.442218	50
514.426568	50
498.431654	50
301.217304	50
273.222389	200
244.228203	100
240.196903	100
226.217638	50
222.186338	50
212.201988	100
183.175439	100

NAME: Cer 14:0;O2/18:1;2OH
PRECURSORMZ: 524.4684
PRECURSORTYPE: [M-H]-
IONMODE: Negative
FORMULA: C32H63NO4
SMILES: O=C(NC(CO)C(O)CCCCCCCCCCC)C(O)CCCCCCC=CCCCCCCCC
INCHIKEY: BPBHMMGJTZLKOX-UHFFFAOYSA-N
COMPOUNDCLASS: Cer_ADS
RETENTIONTIME: 
COMMENT: 
Num Peaks: 12
524.468433	999
506.457868	50
492.442218	50
476.447304	50
279.232954	50
251.238039	200
244.228203	100
240.196903	100
226.217638	50
222.186338	50
212.201988	100
183.175439	100

NAME: Cer 14:0;O2/20:4;2OH
PRECURSORMZ: 546.4528
PRECURSORTYPE: [M-H]-
IONMODE: Negative
FORMULA: C34H61NO4
SMILES: O=C(NC(CO)C(O)CCCCCCCCCCC)C(O)CCCCCC=CCC=CCC=CCC=CCC
INCHIKEY: FJVQDCGDDQBLPJ-UHFFFAOYSA-N
COMPOUNDCLASS: Cer_ADS
RETENTIONTIME: 
COMMENT: 
Num Peaks: 12
546.452783	999
528.442218	50
514.426568	50
498.431654	50
301.217304	50
273.222389	200
244.228203	100
240.196903	100
226.217638	50
222.186338	50
212.201988	100
183.175439	100

NAME: Cer 14:0;O3/18:1;2OH
PRECURSORMZ: 586.4688
PRECURSORTYPE: [M+HCOO]-
IONMODE: Negative
FORMULA: C32H63NO5
SMILES: O=C(NC(CO)C(O)C(O)CCCCCCCCCC)C(O)CCCCCCC=CCCCCCCCC
INCHIKEY: WGSZJZJUZPMUCN-UHFFFAOYSA-N
COMPOUNDCLASS: Cer_AP
RETENTIONTIME: 
COMMENT: 
Num Peaks: 6
586.468827	10
540.463348	999
352.285718	100
297.243519	400
251.238039	200
169.159789	200

NAME: Cer 14:0;O3/20:4;2OH
PRECURSORMZ: 608.4532
PRECURSORTYPE: [M+HCOO]-
IONMODE: Negative
FORMULA: C34H61NO5
SMILES: O=C(NC(CO)C(O)C(O)CCCCCCCCCC)C(O)CCCCCC=CCC=CCC=CCC=CCC
INCHIKEY: ZPYYAEKKYXHEBP-UHFFFAOYSA-N
COMPOUNDCLASS: Cer_AP
RETENTIONTIME: 
COMMENT: 
Num Peaks: 6
608.453177	10
562.447698	999
374.270068	100
319.227868	400
273.222389	200
169.159789	200

NAME: Cer 18:1;O3/14:0;2OH
PRECURSORMZ: 586.4688
PRECURSORTYPE: [M+HCOO]-
IONMODE: Negative
FORMULA: C32H63NO5
SMILES: O=C(NC(CO)C(O)C(O)CCCC=CCCCCCCCCC)C(O)CCCCCCCCCCCC
INCHIKEY: BKGJVSXOCBWGNL-UHFFFAOYSA-N
COMPOUNDCLASS: Cer_AP
RETENTIONTIME: 
COMMENT: 
Num Peaks: 6
586.468827	10
540.463348	999
298.238768	100
243.196568	400
223.206739	200
197.191089	200

NAME: Cer 18:1;O3/20:4;2OH
PRECURSORMZ: 662.5001
PRECURSORTYPE: [M+HCOO]-
IONMODE: Negative
FORMULA: C38H67NO5
SMILES: O=C(NC(CO)C(O)C(O)CCCC=CCCCCCCCCC)C(O)CCCCCC=CCC=CCC=CCC=CCC
INCHIKEY: HUDQBQIHJNBFRW-UHFFFAOYSA-N
COMPOUNDCLASS: Cer_AP
RETENTIONTIME: 
COMMENT: 
Num Peaks: 6
662.500127	10
616.494648	999
374.270068	100
319.227868	400
273.222389	200
223.206739	200

NAME: Cer 14:0;O3/18:1;2OH
PRECURSORMZ: 524.4673
PRECURSORTYPE: [M+H-H2O]+
IONMODE: Positive
FORMULA: C32H63NO5
SMILES: O=C(NC(CO)C(O)C(O)CCCCCCCCCC)C(O)CCCCCCC=CCCCCCCCC
INCHIKEY: WGSZJZJUZPMUCN-UHFFFAOYSA-N
COMPOUNDCLASS: Cer_AP
RETENTIONTIME: 
COMMENT: 
Num Peaks: 7
524.467336	999
506.456771	400
488.446206	50
262.23767	200
244.227106	400
226.216541	600
208.205976	800

NAME: Cer 14:0;O3/20:4;2OH
PRECURSORMZ: 546.4517
PRECURSORTYPE: [M+H-H2O]+
IONMODE: Positive
FORMULA: C34H61NO5
SMILES: O=C(NC(CO)C(O)C(O)CCCCCCCCCC)C(O)CCCCCC=CCC=CCC=CCC=CCC
INCHIKEY: ZPYYAEKKYXHEBP-UHFFFAOYSA-N
COMPOUNDCLASS: Cer_AP
RETENTIONTIME: 
COMMENT: 
Num Peaks: 7
546.451686	999
528.441121	400
510.430556	50
262.23767	200
244.227106	400
226.216541	600
208.205976	800

NAME: Cer 18:1;O3/14:0;2OH
PRECURSORMZ: 524.4673
PRECURSORTYPE: [M+H-H2O]+
IONMODE: Positive
FORMULA: C32H63NO5
SMILES: O=C(NC(CO)C(O)C(O)CCCC=CCCCCCCCCC)C(O)CCCCCCCCCCCC
INCHIKEY: BKGJVSXOCBWGNL-UHFFFAOYSA-N
COMPOUNDCLASS: Cer_AP
RETENTIONTIME: 
COMMENT: 
Num Peaks: 7
524.467336	999
506.456771	400
488.446206	50
316.28462	200
298.274056	400
280.263491	600
262.252926	800

NAME: Cer 18:1;O3/20:4;2OH
PRECURSORMZ: 600.4986
PRECURSORTYPE: [M+H-H2O]+
IONMODE: Positive
FORMULA: C38H67NO5
SMILES: O=C(NC(CO)C(O)C(O)CCCC=CCCCCCCCCC)C(O)CCCCCC=CCC=CCC=CCC=CCC
INCHIKEY: HUDQBQIHJNBFRW-UHFFFAOYSA-N
COMPOUNDCLASS: Cer_AP
RETENTIONTIME: 
COMMENT: 
Num Peaks: 7
600.498636	999
582.488071	400
564.477507	50
316.28462	200
298.274056	400
280.263491	600
262.252926	800

NAME: Cer 14:0;O3/18:1;2OH
PRECURSORMZ: 600.4845
PRECURSORTYPE: [M+CH3COO]-
IONMODE: Negative
FORMULA: C32H63NO5
SMILES: O=C(NC(CO)C(O)C(O)CCCCCCCCCC)C(O)CCCCCCC=CCCCCCCCC
INCHIKEY: WGSZJZJUZPMUCN-UHFFFAOYSA-N
COMPOUNDCLASS: Cer_AP
RETENTIONTIME: 
COMMENT: 
Num Peaks: 6
600.484477	10
540.463348	999
352.285718	100
297.243519	400
251.238039	200
169.159789	200

NAME: Cer 14:0;O3/20:4;2OH
PRECURSORMZ: 622.4688
PRECURSORTYPE: [M+CH3COO]-
IONMODE: Negative
FORMULA: C34H61NO5
SMILES: O=C(NC(CO)C(O)C(O)CCCCCCCCCC)C(O)CCCCCC=CCC=CCC=CCC=CCC
INCHIKEY: ZPYYAEKKYXHEBP-UHFFFAOYSA-N
COMPOUNDCLASS: Cer_AP
RETENTIONTIME: 
COMMENT: 
Num Peaks: 6
622.468827	10
562.447698	999
374.270068	100
319.227868	400
273.222389	200
169.159789	200

NAME: Cer 18:1;O3/14:0;2OH
PRECURSORMZ: 600.4845
PRECURSORTYPE: [M+CH3COO]-
IONMODE: Negative
FORMULA: C32H63NO5
SMILES: O=C(NC(CO)C(O)C(O)CCCC=CCCCCCCCCC)C(O)CCCCCCCCCCCC
INCHIKEY: BKGJVSXOCBWGNL-UHFFFAOYSA-N
COMPOUNDCLASS: Cer_AP
RETENTIONTIME: 
COMMENT: 
Num Peaks: 6
600.484477	10
540.463348	999
298.238768	100
243.196568	400
223.206739	200
197.191089	200

NAME: Cer 18:1;O3/20:4;2OH
PRECURSORMZ: 676.5158
PRECURSORTYPE: [M+CH3COO]-
IONMODE: Negative
FORMULA: C38H67NO5
SMILES: O=C(NC(CO)C(O)C(O)CCCC=CCCCCCCCCC)C(O)CCCCCC=CCC=CCC=CCC=CCC
INCHIKEY: HUDQBQIHJNBFRW-UHFFFAOYSA-N
COMPOUNDCLASS: Cer_AP
RETENTIONTIME: 
COMMENT: 
Num Peaks: 6
676.515777	10
616.494648	999
374.270068	100
319.227868	400
273.222389	200
223.206739	200

NAME: Cer 14:0;O3/18:1;2OH
PRECURSORMZ: 540.4633
PRECURSORTYPE: [M-H]-
IONMODE: Negative
FORMULA: C32H63NO5
SMILES: O=C(NC(CO)C(O)C(O)CCCCCCCCCC)C(O)CCCCCCC=CCCCCCCCC
INCHIKEY: WGSZJZJUZPMUCN-UHFFFAOYSA-N
COMPOUNDCLASS: Cer_AP
RETENTIONTIME: 
COMMENT: 
Num Peaks: 5
540.463348	999
352.285718	100
297.243519	400
251.238039	200
169.159789	200

NAME: Cer 14:0;O3/20:4;2OH
PRECURSORMZ: 562.4477
PRECURSORTYPE: [M-H]-
IONMODE: Negative
FORMULA: C34H61NO5
SMILES: O=C(NC(CO)C(O)C(O)CCCCCCCCCC)C(O)CCCCCC=CCC=CCC=CCC=CCC
INCHIKEY: ZPYYAEKKYXHEBP-UHFFFAOYSA-N
COMPOUNDCLASS: Cer_AP
RETENTIONTIME: 
COMMENT: 
Num Peaks: 5
562.447698	999
374.270068	100
319.227868	400
273.222389	200
169.159789	200

NAME: Cer 18:1;O3/14:0;2OH
PRECURSORMZ: 540.4633
PRECURSORTYPE: [M-H]-
IONMODE: Negative
FORMULA: C32H63NO5
SMILES: O=C(NC(CO)C(O)C(O)CCCC=CCCCCCCCCC)C(O)CCCCCCCCCCCC
INCHIKEY: BKGJVSXOCBWGNL-UHFFFAOYSA-N
COMPOUNDCLASS: Cer_AP
RETENTIONTIME: 
COMMENT: 
Num Peaks: 5
540.463348	999
298.238768	100
243.196568	400
223.206739	200
197.191089	200

NAME: Cer 18:1;O3/20:4;2OH
PRECURSORMZ: 616.4946
PRECURSORTYPE: [M-H]-
IONMODE: Negative
FORMULA: C38H67NO5
SMILES: O=C(NC(CO)C(O)C(O)CCCC=CCCCCCCCCC)C(O)CCCCCC=CCC=CCC=CCC=CCC
INCHIKEY: HUDQBQIHJNBFRW-UHFFFAOYSA-N
COMPOUNDCLASS: Cer_AP
RETENTIONTIME: 
COMMENT: 
Num Peaks: 5
616.494648	999
374.270068	100
319.227868	400
273.222389	200
223.206739	200

NAME: Cer 14:0;O3/18:1;2OH
PRECURSORMZ: 542.4779
PRECURSORTYPE: [M+H]+
IONMODE: Positive
FORMULA: C32H63NO5
SMILES: O=C(NC(CO)C(O)C(O)CCCCCCCCCC)C(O)CCCCCCC=CCCCCCCCC
INCHIKEY: WGSZJZJUZPMUCN-UHFFFAOYSA-N
COMPOUNDCLASS: Cer_AP
RETENTIONTIME: 
COMMENT: 
Num Peaks: 8
542.477901	300
524.467336	999
506.456771	400
488.446206	50
262.23767	200
244.227106	400
226.216541	600
208.205976	800

NAME: Cer 14:0;O3/20:4;2OH
PRECURSORMZ: 564.4623
PRECURSORTYPE: [M+H]+
IONMODE: Positive
FORMULA: C34H61NO5
SMILES: O=C(NC(CO)C(O)C(O)CCCCCCCCCC)C(O)CCCCCC=CCC=CCC=CCC=CCC
INCHIKEY: ZPYYAEKKYXHEBP-UHFFFAOYSA-N
COMPOUNDCLASS: Cer_AP
RETENTIONTIME: 
COMMENT: 
Num Peaks: 8
564.46225	300
546.451686	999
528.441121	400
510.430556	50
262.23767	200
244.227106	400
226.216541	600
208.205976	800

NAME: Cer 18:1;O3/14:0;2OH
PRECURSORMZ: 542.4779
PRECURSORTYPE: [M+H]+
IONMODE: Positive
FORMULA: C32H63NO5
SMILES: O=C(NC(CO)C(O)C(O)CCCC=CCCCCCCCCC)C(O)CCCCCCCCCCCC
INCHIKEY: BKGJVSXOCBWGNL-UHFFFAOYSA-N
COMPOUNDCLASS: Cer_AP
RETENTIONTIME: 
COMMENT: 
Num Peaks: 8
542.477901	300
524.467336	999
506.456771	400
488.446206	50
316.28462	200
298.274056	400
280.263491	600
262.252926	800

NAME: Cer 18:1;O3/20:4;2OH
PRECURSORMZ: 618.5092
PRECURSORTYPE: [M+H]+
IONMODE: Positive
FORMULA: C38H67NO5
SMILES: O=C(NC(CO)C(O)C(O)CCCC=CCCCCCCCCC)C(O)CCCCCC=CCC=CCC=CCC=CCC
INCHIKEY: HUDQBQIHJNBFRW-UHFFFAOYSA-N
COMPOUNDCLASS: Cer_AP
RETENTIONTIME: 
COMMENT: 
Num Peaks: 8
618.509201	300
600.498636	999
582.488071	400
564.477507	50
316.28462	200
298.274056	400
280.263491	600
262.252926	800

NAME: Cer 14:0;O3/18:1;2OH
PRECURSORMZ: 564.4598
PRECURSORTYPE: [M+Na]+
IONMODE: Positive
FORMULA: C32H63NO5
SMILES: O=C(NC(CO)C(O)C(O)CCCCCCCCCC)C(O)CCCCCCC=CCCCCCCCC
INCHIKEY: WGSZJZJUZPMUCN-UHFFFAOYSA-N
COMPOUNDCLASS: Cer_AP
RETENTIONTIME: 
COMMENT: 
Num Peaks: 2
564.459845	999
226.216541	50

NAME: Cer 14:0;O3/20:4;2OH
PRECURSORMZ: 586.4442
PRECURSORTYPE: [M+Na]+
IONMODE: Positive
FORMULA: C34H61NO5
SMILES: O=C(NC(CO)C(O)C(O)CCCCCCCCCC)C(O)CCCCCC=CCC=CCC=CCC=CCC
INCHIKEY: ZPYYAEKKYXHEBP-UHFFFAOYSA-N
COMPOUNDCLASS: Cer_AP
RETENTIONTIME: 
COMMENT: 
Num Peaks: 2
586.444195	999
226.216541	50

NAME: Cer 18:1;O3/14:0;2OH
PRECURSORMZ: 564.4598
PRECURSORTYPE: [M+Na]+
IONMODE: Positive
FORMULA: C32H63NO5
SMILES: O=C(NC(CO)C(O)C(O)CCCC=CCCCCCCCCC)C(O)CCCCCCCCCCCC
INCHIKEY: BKGJVSXOCBWGNL-UHFFFAOYSA-N
COMPOUNDCLASS: Cer_AP
RETENTIONTIME: 
COMMENT: 
Num Peaks: 2
564.459845	999
280.263491	50

NAME: Cer 18:1;O3/20:4;2OH
PRECURSORMZ: 640.4911
PRECURSORTYPE: [M+Na]+
IONMODE: Positive
FORMULA: C38H67NO5
SMILES: O=C(NC(CO)C(O)C(O)CCCC=CCCCCCCCCC)C(O)CCCCCC=CCC=CCC=CCC=CCC
INCHIKEY: HUDQBQIHJNBFRW-UHFFFAOYSA-N
COMPOUNDCLASS: Cer_AP
RETENTIONTIME: 
COMMENT: 
Num Peaks: 2
640.491145	999
280.263491	50

NAME: Cer 18:1;O2/14:0;2OH
PRECURSORMZ: 570.4739
PRECURSORTYPE: [M+HCOO]-
IONMODE: Negative
FORMULA: C32H63NO4
SMILES: O=C(NC(CO)C(O)C=CCCCCCCCCCCCCC)C(O)CCCCCCCCCCCC
INCHIKEY: QTRHWTPSLZLMAL-UHFFFAOYSA-N
COMPOUNDCLASS: Cer_AS
RETENTIONTIME: 
COMMENT: 
Num Peaks: 13
570.473912	10
524.468433	999
506.457868	50
492.442218	50
476.447304	100
280.264588	50
268.264588	100
243.196568	100
242.212553	80
239.238039	100
237.222389	100
225.186004	100
197.191089	150

NAME: Cer 18:1;O2/20:4;2OH
PRECURSORMZ: 646.5052
PRECURSORTYPE: [M+HCOO]-
IONMODE: Negative
FORMULA: C38H67NO4
SMILES: O=C(NC(CO)C(O)C=CCCCCCCCCCCCCC)C(O)CCCCCC=CCC=CCC=CCC=CCC
INCHIKEY: ASZNJWAOWWLNNE-UHFFFAOYSA-N
COMPOUNDCLASS: Cer_AS
RETENTIONTIME: 
COMMENT: 
Num Peaks: 13
646.505212	10
600.499733	999
582.489169	50
568.473518	50
552.478604	100
319.227868	100
318.243853	80
301.217304	100
280.264588	50
273.222389	150
268.264588	100
239.238039	100
237.222389	100

NAME: Cer 18:1;O2/14:0;2OH
PRECURSORMZ: 584.4896
PRECURSORTYPE: [M+CH3COO]-
IONMODE: Negative
FORMULA: C32H63NO4
SMILES: O=C(NC(CO)C(O)C=CCCCCCCCCCCCCC)C(O)CCCCCCCCCCCC
INCHIKEY: QTRHWTPSLZLMAL-UHFFFAOYSA-N
COMPOUNDCLASS: Cer_AS
RETENTIONTIME: 
COMMENT: 
Num Peaks: 13
584.489562	10
524.468433	999
506.457868	50
492.442218	50
476.447304	100
280.264588	50
268.264588	100
243.196568	100
242.212553	80
239.238039	100
237.222389	100
225.186004	100
197.191089	150

NAME: Cer 18:1;O2/20:4;2OH
PRECURSORMZ: 660.5209
PRECURSORTYPE: [M+CH3COO]-
IONMODE: Negative
FORMULA: C38H67NO4
SMILES: O=C(NC(CO)C(O)C=CCCCCCCCCCCCCC)C(O)CCCCCC=CCC=CCC=CCC=CCC
INCHIKEY: ASZNJWAOWWLNNE-UHFFFAOYSA-N
COMPOUNDCLASS: Cer_AS
RETENTIONTIME: 
COMMENT: 
Num Peaks: 13
660.520863	10
600.499733	999
582.489169	50
568.473518	50
552.478604	100
319.227868	100
318.243853	80
301.217304	100
280.264588	50
273.222389	150
268.264588	100
239.238039	100
237.222389	100

NAME: Cer 18:1;O2/14:0;2OH
PRECURSORMZ: 524.4684
PRECURSORTYPE: [M-H]-
IONMODE: Negative
FORMULA: C32H63NO4
SMILES: O=C(NC(CO)C(O)C=CCCCCCCCCCCCCC)C(O)CCCCCCCCCCCC
INCHIKEY: QTRHWTPSLZLMAL-UHFFFAOYSA-N
COMPOUNDCLASS: Cer_AS
RETENTIONTIME: 
COMMENT: 
Num Peaks: 12
524.468433	999
506.457868	50
492.442218	50
476.447304	100
280.264588	50
268.264588	100
243.196568	100
242.212553	80
239.238039	100
237.222389	100
225.186004	100
197.191089	150

NAME: Cer 18:1;O2/20:4;2OH
PRECURSORMZ: 600.4997
PRECURSORTYPE: [M-H]-
IONMODE: Negative
FORMULA: C38H67NO4
SMILES: O=C(NC(CO)C(O)C=CCCCCCCCCCCCCC)C(O)CCCCCC=CCC=CCC=CCC=CCC
INCHIKEY: ASZNJWAOWWLNNE-UHFFFAOYSA-N
COMPOUNDCLASS: Cer_AS
RETENTIONTIME: 
COMMENT: 
Num Peaks: 12
600.499733	999
582.489169	50
568.473518	50
552.478604	100
319.227868	100
318.243853	80
301.217304	100
280.264588	50
273.222389	150
268.264588	100
239.238039	100
237.222389	100

NAME: Cer 14:0;O2/18:1;3OH
PRECURSORMZ: 570.4739
PRECURSORTYPE: [M+HCOO]-
IONMODE: Negative
FORMULA: C32H63NO4
SMILES: O=C(NC(CO)C(O)CCCCCCCCCCC)CC(O)CCCCCC=CCCCCCCCC
INCHIKEY: WBUMMBAYPBXBNM-UHFFFAOYSA-N
COMPOUNDCLASS: Cer_BDS
RETENTIONTIME: 
COMMENT: 
Num Peaks: 6
570.473912	10
524.468433	999
286.238768	999
254.212553	200
244.228203	200
183.175439	100

NAME: Cer 14:0;O2/20:4;3OH
PRECURSORMZ: 592.4583
PRECURSORTYPE: [M+HCOO]-
IONMODE: Negative
FORMULA: C34H61NO4
SMILES: O=C(NC(CO)C(O)CCCCCCCCCCC)CC(O)CCCCC=CCC=CCC=CCC=CCC
INCHIKEY: ZSLLCIDJRWELHX-UHFFFAOYSA-N
COMPOUNDCLASS: Cer_BDS
RETENTIONTIME: 
COMMENT: 
Num Peaks: 6
592.458262	10
546.452783	999
286.238768	999
254.212553	200
244.228203	200
183.175439	100

NAME: Cer 14:0;O2/18:1;3OH
PRECURSORMZ: 584.4896
PRECURSORTYPE: [M+CH3COO]-
IONMODE: Negative
FORMULA: C32H63NO4
SMILES: O=C(NC(CO)C(O)CCCCCCCCCCC)CC(O)CCCCCC=CCCCCCCCC
INCHIKEY: WBUMMBAYPBXBNM-UHFFFAOYSA-N
COMPOUNDCLASS: Cer_BDS
RETENTIONTIME: 
COMMENT: 
Num Peaks: 6
584.489562	10
524.468433	999
286.238768	999
254.212553	200
244.228203	200
183.175439	100

NAME: Cer 14:0;O2/20:4;3OH
PRECURSORMZ: 606.4739
PRECURSORTYPE: [M+CH3COO]-
IONMODE: Negative
FORMULA: C34H61NO4
SMILES: O=C(NC(CO)C(O)CCCCCCCCCCC)CC(O)CCCCC=CCC=CCC=CCC=CCC
INCHIKEY: ZSLLCIDJRWELHX-UHFFFAOYSA-N
COMPOUNDCLASS: Cer_BDS
RETENTIONTIME: 
COMMENT: 
Num Peaks: 6
606.473912	10
546.452783	999
286.238768	999
254.212553	200
244.228203	200
183.175439	100

NAME: Cer 14:0;O2/18:1;3OH
PRECURSORMZ: 524.4684
PRECURSORTYPE: [M-H]-
IONMODE: Negative
FORMULA: C32H63NO4
SMILES: O=C(NC(CO)C(O)CCCCCCCCCCC)CC(O)CCCCCC=CCCCCCCCC
INCHIKEY: WBUMMBAYPBXBNM-UHFFFAOYSA-N
COMPOUNDCLASS: Cer_BDS
RETENTIONTIME: 
COMMENT: 
Num Peaks: 5
524.468433	999
286.238768	999
254.212553	200
244.228203	200
183.175439	100

NAME: Cer 14:0;O2/20:4;3OH
PRECURSORMZ: 546.4528
PRECURSORTYPE: [M-H]-
IONMODE: Negative
FORMULA: C34H61NO4
SMILES: O=C(NC(CO)C(O)CCCCCCCCCCC)CC(O)CCCCC=CCC=CCC=CCC=CCC
INCHIKEY: ZSLLCIDJRWELHX-UHFFFAOYSA-N
COMPOUNDCLASS: Cer_BDS
RETENTIONTIME: 
COMMENT: 
Num Peaks: 5
546.452783	999
286.238768	999
254.212553	200
244.228203	200
183.175439	100

NAME: Cer 18:1;O2/14:0;3OH
PRECURSORMZ: 570.4739
PRECURSORTYPE: [M+HCOO]-
IONMODE: Negative
FORMULA: C32H63NO4
SMILES: O=C(NC(CO)C(O)C=CCCCCCCCCCCCCC)CC(O)CCCCCCCCCCC
INCHIKEY: DWKYQXRDAQWMHL-UHFFFAOYSA-N
COMPOUNDCLASS: Cer_BS
RETENTIONTIME: 
COMMENT: 
Num Peaks: 7
570.473912	10
524.468433	300
506.457868	100
340.285718	999
310.275153	200
263.238039	200
237.222389	200

NAME: Cer 18:1;O2/20:4;3OH
PRECURSORMZ: 646.5052
PRECURSORTYPE: [M+HCOO]-
IONMODE: Negative
FORMULA: C38H67NO4
SMILES: O=C(NC(CO)C(O)C=CCCCCCCCCCCCCC)CC(O)CCCCC=CCC=CCC=CCC=CCC
INCHIKEY: FNDYCCQSFSETPW-UHFFFAOYSA-N
COMPOUNDCLASS: Cer_BS
RETENTIONTIME: 
COMMENT: 
Num Peaks: 7
646.505212	10
600.499733	300
582.489169	100
340.285718	999
310.275153	200
263.238039	200
237.222389	200

NAME: Cer 18:1;O2/14:0;3OH
PRECURSORMZ: 584.4896
PRECURSORTYPE: [M+CH3COO]-
IONMODE: Negative
FORMULA: C32H63NO4
SMILES: O=C(NC(CO)C(O)C=CCCCCCCCCCCCCC)CC(O)CCCCCCCCCCC
INCHIKEY: DWKYQXRDAQWMHL-UHFFFAOYSA-N
COMPOUNDCLASS: Cer_BS
RETENTIONTIME: 
COMMENT: 
Num Peaks: 7
584.489562	10
524.468433	300
506.457868	100
340.285718	999
310.275153	200
263.238039	200
237.222389	200

NAME: Cer 18:1;O2/20:4;3OH
PRECURSORMZ: 660.5209
PRECURSORTYPE: [M+CH3COO]-
IONMODE: Negative
FORMULA: C38H67NO4
SMILES: O=C(NC(CO)C(O)C=CCCCCCCCCCCCCC)CC(O)CCCCC=CCC=CCC=CCC=CCC
INCHIKEY: FNDYCCQSFSETPW-UHFFFAOYSA-N
COMPOUNDCLASS: Cer_BS
RETENTIONTIME: 
COMMENT: 
Num Peaks: 7
660.520863	10
600.499733	300
582.489169	100
340.285718	999
310.275153	200
263.238039	200
237.222389	200

NAME: Cer 18:1;O2/14:0;3OH
PRECURSORMZ: 524.4684
PRECURSORTYPE: [M-H]-
IONMODE: Negative
FORMULA: C32H63NO4
SMILES: O=C(NC(CO)C(O)C=CCCCCCCCCCCCCC)CC(O)CCCCCCCCCCC
INCHIKEY: DWKYQXRDAQWMHL-UHFFFAOYSA-N
COMPOUNDCLASS: Cer_BS
RETENTIONTIME: 
COMMENT: 
Num Peaks: 6
524.468433	300
506.457868	100
340.285718	999
310.275153	200
263.238039	200
237.222389	200

NAME: Cer 18:1;O2/20:4;3OH
PRECURSORMZ: 600.4997
PRECURSORTYPE: [M-H]-
IONMODE: Negative
FORMULA: C38H67NO4
SMILES: O=C(NC(CO)C(O)C=CCCCCCCCCCCCCC)CC(O)CCCCC=CCC=CCC=CCC=CCC
INCHIKEY: FNDYCCQSFSETPW-UHFFFAOYSA-N
COMPOUNDCLASS: Cer_BS
RETENTIONTIME: 
COMMENT: 
Num Peaks: 6
600.499733	300
582.489169	100
340.285718	999
310.275153	200
263.238039	200
237.222389	200

NAME: Cer 14:0;O2/18:1;O
PRECURSORMZ: 508.4724
PRECURSORTYPE: [M+H-H2O]+
IONMODE: Positive
FORMULA: C32H63NO4
SMILES: O=C(NC(CO)C(O)CCCCCCCCCCC)C(O)CCCCCCC=CCCCCCCCC
INCHIKEY: BPBHMMGJTZLKOX-UHFFFAOYSA-N
COMPOUNDCLASS: Cer_HDS
RETENTIONTIME: 
COMMENT: 
Num Peaks: 4
508.472421	999
228.232191	300
210.221626	999
198.221626	300

NAME: Cer 14:0;O2/20:4;O
PRECURSORMZ: 530.4568
PRECURSORTYPE: [M+H-H2O]+
IONMODE: Positive
FORMULA: C34H61NO4
SMILES: O=C(NC(CO)C(O)CCCCCCCCCCC)C(O)CCCCCC=CCC=CCC=CCC=CCC
INCHIKEY: FJVQDCGDDQBLPJ-UHFFFAOYSA-N
COMPOUNDCLASS: Cer_HDS
RETENTIONTIME: 
COMMENT: 
Num Peaks: 4
530.456771	999
228.232191	300
210.221626	999
198.221626	300

NAME: Cer 14:0;O2/18:1;O
PRECURSORMZ: 526.483
PRECURSORTYPE: [M+H]+
IONMODE: Positive
FORMULA: C32H63NO4
SMILES: O=C(NC(CO)C(O)CCCCCCCCCCC)C(O)CCCCCCC=CCCCCCCCC
INCHIKEY: BPBHMMGJTZLKOX-UHFFFAOYSA-N
COMPOUNDCLASS: Cer_HDS
RETENTIONTIME: 
COMMENT: 
Num Peaks: 5
526.482986	5
508.472421	999
228.232191	300
210.221626	999
198.221626	300

NAME: Cer 14:0;O2/20:4;O
PRECURSORMZ: 548.4673
PRECURSORTYPE: [M+H]+
IONMODE: Positive
FORMULA: C34H61NO4
SMILES: O=C(NC(CO)C(O)CCCCCCCCCCC)C(O)CCCCCC=CCC=CCC=CCC=CCC
INCHIKEY: FJVQDCGDDQBLPJ-UHFFFAOYSA-N
COMPOUNDCLASS: Cer_HDS
RETENTIONTIME: 
COMMENT: 
Num Peaks: 5
548.467336	5
530.456771	999
228.232191	300
210.221626	999
198.221626	300

NAME: Cer 14:0;O2/18:1;O
PRECURSORMZ: 548.4649
PRECURSORTYPE: [M+Na]+
IONMODE: Positive
FORMULA: C32H63NO4
SMILES: O=C(NC(CO)C(O)CCCCCCCCCCC)C(O)CCCCCCC=CCCCCCCCC
INCHIKEY: BPBHMMGJTZLKOX-UHFFFAOYSA-N
COMPOUNDCLASS: Cer_HDS
RETENTIONTIME: 
COMMENT: 
Num Peaks: 2
548.46493	999
210.221626	50

NAME: Cer 14:0;O2/20:4;O
PRECURSORMZ: 570.4493
PRECURSORTYPE: [M+Na]+
IONMODE: Positive
FORMULA: C34H61NO4
SMILES: O=C(NC(CO)C(O)CCCCCCCCCCC)C(O)CCCCCC=CCC=CCC=CCC=CCC
INCHIKEY: FJVQDCGDDQBLPJ-UHFFFAOYSA-N
COMPOUNDCLASS: Cer_HDS
RETENTIONTIME: 
COMMENT: 
Num Peaks: 2
570.44928	999
210.221626	50

NAME: Cer 18:1;O2/14:0;O
PRECURSORMZ: 508.4724
PRECURSORTYPE: [M+H-H2O]+
IONMODE: Positive
FORMULA: C32H63NO4
SMILES: O=C(NC(CO)C(O)C=CCCCCCCCCCCCCC)C(O)CCCCCCCCCCCC
INCHIKEY: QTRHWTPSLZLMAL-UHFFFAOYSA-N
COMPOUNDCLASS: Cer_HS
RETENTIONTIME: 
COMMENT: 
Num Peaks: 4
508.472421	999
282.279141	300
264.268576	999
252.268576	300

NAME: Cer 18:1;O2/20:4;O
PRECURSORMZ: 584.5037
PRECURSORTYPE: [M+H-H2O]+
IONMODE: Positive
FORMULA: C38H67NO4
SMILES: O=C(NC(CO)C(O)C=CCCCCCCCCCCCCC)C(O)CCCCCC=CCC=CCC=CCC=CCC
INCHIKEY: ASZNJWAOWWLNNE-UHFFFAOYSA-N
COMPOUNDCLASS: Cer_HS
RETENTIONTIME: 
COMMENT: 
Num Peaks: 4
584.503721	999
282.279141	300
264.268576	999
252.268576	300

NAME: Cer 18:1;O2/14:0;O
PRECURSORMZ: 526.483
PRECURSORTYPE: [M+H]+
IONMODE: Positive
FORMULA: C32H63NO4
SMILES: O=C(NC(CO)C(O)C=CCCCCCCCCCCCCC)C(O)CCCCCCCCCCCC
INCHIKEY: QTRHWTPSLZLMAL-UHFFFAOYSA-N
COMPOUNDCLASS: Cer_HS
RETENTIONTIME: 
COMMENT: 
Num Peaks: 5
526.482986	5
508.472421	999
282.279141	300
264.268576	999
252.268576	300

NAME: Cer 18:1;O2/20:4;O
PRECURSORMZ: 602.5143
PRECURSORTYPE: [M+H]+
IONMODE: Positive
FORMULA: C38H67NO4
SMILES: O=C(NC(CO)C(O)C=CCCCCCCCCCCCCC)C(O)CCCCCC=CCC=CCC=CCC=CCC
INCHIKEY: ASZNJWAOWWLNNE-UHFFFAOYSA-N
COMPOUNDCLASS: Cer_HS
RETENTIONTIME: 
COMMENT: 
Num Peaks: 5
602.514286	5
584.503721	999
282.279141	300
264.268576	999
252.268576	300

NAME: Cer 18:1;O2/14:0;O
PRECURSORMZ: 548.4649
PRECURSORTYPE: [M+Na]+
IONMODE: Positive
FORMULA: C32H63NO4
SMILES: O=C(NC(CO)C(O)C=CCCCCCCCCCCCCC)C(O)CCCCCCCCCCCC
INCHIKEY: QTRHWTPSLZLMAL-UHFFFAOYSA-N
COMPOUNDCLASS: Cer_HS
RETENTIONTIME: 
COMMENT: 
Num Peaks: 2
548.46493	999
264.268576	50

NAME: Cer 18:1;O2/20:4;O
PRECURSORMZ: 624.4962
PRECURSORTYPE: [M+Na]+
IONMODE: Positive
FORMULA: C38H67NO4
SMILES: O=C(NC(CO)C(O)C=CCCCCCCCCCCCCC)C(O)CCCCCC=CCC=CCC=CCC=CCC
INCHIKEY: ASZNJWAOWWLNNE-UHFFFAOYSA-N
COMPOUNDCLASS: Cer_HS
RETENTIONTIME: 
COMMENT: 
Num Peaks: 2
624.49623	999
264.268576	50

NAME: Cer 14:0;O2/18:1
PRECURSORMZ: 554.479
PRECURSORTYPE: [M+HCOO]-
IONMODE: Negative
FORMULA: C32H63NO3
SMILES: O=C(NC(CO)C(O)CCCCCCCCCCC)CCCCCCCC=CCCCCCCCC
INCHIKEY: QIHCOBHOJBJGKC-UHFFFAOYSA-N
COMPOUNDCLASS: Cer_NDS
RETENTIONTIME: 
COMMENT: 
Num Peaks: 10
554.478998	10
508.473518	999
476.447304	300
460.452389	200
322.275153	300
306.280238	400
280.264588	100
263.238039	200
244.228203	50
183.175439	300

NAME: Cer 14:0;O2/20:4
PRECURSORMZ: 576.4633
PRECURSORTYPE: [M+HCOO]-
IONMODE: Negative
FORMULA: C34H61NO3
SMILES: O=C(NC(CO)C(O)CCCCCCCCCCC)CCCCCCC=CCC=CCC=CCC=CCC
INCHIKEY: DBALYFLHCFPLIE-UHFFFAOYSA-N
COMPOUNDCLASS: Cer_NDS
RETENTIONTIME: 
COMMENT: 
Num Peaks: 10
576.463348	10
530.457868	999
498.431654	300
482.436739	200
344.259503	300
328.264588	400
302.248938	100
285.222389	200
244.228203	50
183.175439	300

NAME: Cer 14:0;O2/18:1
PRECURSORMZ: 492.4775
PRECURSORTYPE: [M+H-H2O]+
IONMODE: Positive
FORMULA: C32H63NO3
SMILES: O=C(NC(CO)C(O)CCCCCCCCCCC)CCCCCCCC=CCCCCCCCC
INCHIKEY: QIHCOBHOJBJGKC-UHFFFAOYSA-N
COMPOUNDCLASS: Cer_NDS
RETENTIONTIME: 
COMMENT: 
Num Peaks: 6
492.477507	100
474.466942	100
282.279141	100
228.232191	200
210.221626	999
198.221626	200

NAME: Cer 14:0;O2/20:4
PRECURSORMZ: 514.4619
PRECURSORTYPE: [M+H-H2O]+
IONMODE: Positive
FORMULA: C34H61NO3
SMILES: O=C(NC(CO)C(O)CCCCCCCCCCC)CCCCCCC=CCC=CCC=CCC=CCC
INCHIKEY: DBALYFLHCFPLIE-UHFFFAOYSA-N
COMPOUNDCLASS: Cer_NDS
RETENTIONTIME: 
COMMENT: 
Num Peaks: 6
514.461857	100
496.451292	100
304.263491	100
228.232191	200
210.221626	999
198.221626	200

NAME: Cer 14:0;O2/18:1
PRECURSORMZ: 568.4946
PRECURSORTYPE: [M+CH3COO]-
IONMODE: Negative
FORMULA: C32H63NO3
SMILES: O=C(NC(CO)C(O)CCCCCCCCCCC)CCCCCCCC=CCCCCCCCC
INCHIKEY: QIHCOBHOJBJGKC-UHFFFAOYSA-N
COMPOUNDCLASS: Cer_NDS
RETENTIONTIME: 
COMMENT: 
Num Peaks: 10
568.494648	10
508.473518	999
476.447304	300
460.452389	200
322.275153	300
306.280238	400
280.264588	100
263.238039	200
244.228203	50
183.175439	300

NAME: Cer 14:0;O2/20:4
PRECURSORMZ: 590.479
PRECURSORTYPE: [M+CH3COO]-
IONMODE: Negative
FORMULA: C34H61NO3
SMILES: O=C(NC(CO)C(O)CCCCCCCCCCC)CCCCCCC=CCC=CCC=CCC=CCC
INCHIKEY: DBALYFLHCFPLIE-UHFFFAOYSA-N
COMPOUNDCLASS: Cer_NDS
RETENTIONTIME: 
COMMENT: 
Num Peaks: 10
590.478998	10
530.457868	999
498.431654	300
482.436739	200
344.259503	300
328.264588	400
302.248938	100
285.222389	200
244.228203	50
183.175439	300

NAME: Cer 14:0;O2/18:1
PRECURSORMZ: 508.4735
PRECURSORTYPE: [M-H]-
IONMODE: Negative
FORMULA: C32H63NO3
SMILES: O=C(NC(CO)C(O)CCCCCCCCCCC)CCCCCCCC=CCCCCCCCC
INCHIKEY: QIHCOBHOJBJGKC-UHFFFAOYSA-N
COMPOUNDCLASS: Cer_NDS
RETENTIONTIME: 
COMMENT: 
Num Peaks: 9
508.473518	999
476.447304	300
460.452389	200
322.275153	300
306.280238	400
280.264588	100
263.238039	200
244.228203	50
183.175439	300

NAME: Cer 14:0;O2/20:4
PRECURSORMZ: 530.4579
PRECURSORTYPE: [M-H]-
IONMODE: Negative
FORMULA: C34H61NO3
SMILES: O=C(NC(CO)C(O)CCCCCCCCCCC)CCCCCCC=CCC=CCC=CCC=CCC
INCHIKEY: DBALYFLHCFPLIE-UHFFFAOYSA-N
COMPOUNDCLASS: Cer_NDS
RETENTIONTIME: 
COMMENT: 
Num Peaks: 9
530.457868	999
498.431654	300
482.436739	200
344.259503	300
328.264588	400
302.248938	100
285.222389	200
244.228203	50
183.175439	300

NAME: Cer 14:0;O2/18:1
PRECURSORMZ: 510.4881
PRECURSORTYPE: [M+H]+
IONMODE: Positive
FORMULA: C32H63NO3
SMILES: O=C(NC(CO)C(O)CCCCCCCCCCC)CCCCCCCC=CCCCCCCCC
INCHIKEY: QIHCOBHOJBJGKC-UHFFFAOYSA-N
COMPOUNDCLASS: Cer_NDS
RETENTIONTIME: 
COMMENT: 
Num Peaks: 7
510.488071	50
492.477507	100
474.466942	100
282.279141	100
228.232191	200
210.221626	999
198.221626	200

NAME: Cer 14:0;O2/20:4
PRECURSORMZ: 532.4724
PRECURSORTYPE: [M+H]+
IONMODE: Positive
FORMULA: C34H61NO3
SMILES: O=C(NC(CO)C(O)CCCCCCCCCCC)CCCCCCC=CCC=CCC=CCC=CCC
INCHIKEY: DBALYFLHCFPLIE-UHFFFAOYSA-N
COMPOUNDCLASS: Cer_NDS
RETENTIONTIME: 
COMMENT: 
Num Peaks: 7
532.472421	50
514.461857	100
496.451292	100
304.263491	100
228.232191	200
210.221626	999
198.221626	200

NAME: Cer 14:0;O2/18:1
PRECURSORMZ: 532.47
PRECURSORTYPE: [M+Na]+
IONMODE: Positive
FORMULA: C32H63NO3
SMILES: O=C(NC(CO)C(O)CCCCCCCCCCC)CCCCCCCC=CCCCCCCCC
INCHIKEY: QIHCOBHOJBJGKC-UHFFFAOYSA-N
COMPOUNDCLASS: Cer_NDS
RETENTIONTIME: 
COMMENT: 
Num Peaks: 2
532.470016	999
210.221626	50

NAME: Cer 14:0;O2/20:4
PRECURSORMZ: 554.4544
PRECURSORTYPE: [M+Na]+
IONMODE: Positive
FORMULA: C34H61NO3
SMILES: O=C(NC(CO)C(O)CCCCCCCCCCC)CCCCCCC=CCC=CCC=CCC=CCC
INCHIKEY: DBALYFLHCFPLIE-UHFFFAOYSA-N
COMPOUNDCLASS: Cer_NDS
RETENTIONTIME: 
COMMENT: 
Num Peaks: 2
554.454366	999
210.221626	50

NAME: Cer 14:0;O3/18:1
PRECURSORMZ: 570.4739
PRECURSORTYPE: [M+HCOO]-
IONMODE: Negative
FORMULA: C32H63NO4
SMILES: O=C(NC(CO)C(O)C(O)CCCCCCCCCC)CCCCCCCC=CCCCCCCCC
INCHIKEY: INENOSXDOADVNF-UHFFFAOYSA-N
COMPOUNDCLASS: Cer_NP
RETENTIONTIME: 
COMMENT: 
Num Peaks: 13
570.473912	10
524.468433	999
506.457868	100
488.447304	200
336.290803	700
324.290803	700
322.275153	200
306.280238	200
281.248604	500
280.264588	250
211.170354	500
199.170354	200
169.159789	50

NAME: Cer 14:0;O3/20:4
PRECURSORMZ: 592.4583
PRECURSORTYPE: [M+HCOO]-
IONMODE: Negative
FORMULA: C34H61NO4
SMILES: O=C(NC(CO)C(O)C(O)CCCCCCCCCC)CCCCCCC=CCC=CCC=CCC=CCC
INCHIKEY: BRWLEZGVFNUPND-UHFFFAOYSA-N
COMPOUNDCLASS: Cer_NP
RETENTIONTIME: 
COMMENT: 
Num Peaks: 13
592.458262	10
546.452783	999
528.442218	100
510.431654	200
358.275153	700
346.275153	700
344.259503	200
328.264588	200
303.232954	500
302.248938	250
211.170354	500
199.170354	200
169.159789	50

NAME: Cer 18:1;O3/14:0
PRECURSORMZ: 570.4739
PRECURSORTYPE: [M+HCOO]-
IONMODE: Negative
FORMULA: C32H63NO4
SMILES: O=C(NC(CO)C(O)C(O)CCCC=CCCCCCCCCC)CCCCCCCCCCCCC
INCHIKEY: CAMZKUPIYHEWEM-UHFFFAOYSA-N
COMPOUNDCLASS: Cer_NP
RETENTIONTIME: 
COMMENT: 
Num Peaks: 13
570.473912	10
524.468433	999
506.457868	100
488.447304	200
282.243853	700
270.243853	700
268.228203	200
265.217304	500
253.217304	200
252.233288	200
227.201654	500
226.217638	250
223.206739	50

NAME: Cer 18:1;O3/20:4
PRECURSORMZ: 646.5052
PRECURSORTYPE: [M+HCOO]-
IONMODE: Negative
FORMULA: C38H67NO4
SMILES: O=C(NC(CO)C(O)C(O)CCCC=CCCCCCCCCC)CCCCCCC=CCC=CCC=CCC=CCC
INCHIKEY: BALKVZXHIJAOEQ-UHFFFAOYSA-N
COMPOUNDCLASS: Cer_NP
RETENTIONTIME: 
COMMENT: 
Num Peaks: 13
646.505212	10
600.499733	999
582.489169	100
564.478604	200
358.275153	700
346.275153	700
344.259503	200
328.264588	200
303.232954	500
302.248938	250
265.217304	500
253.217304	200
223.206739	50

NAME: Cer 14:0;O3/18:1
PRECURSORMZ: 584.4896
PRECURSORTYPE: [M+CH3COO]-
IONMODE: Negative
FORMULA: C32H63NO4
SMILES: O=C(NC(CO)C(O)C(O)CCCCCCCCCC)CCCCCCCC=CCCCCCCCC
INCHIKEY: INENOSXDOADVNF-UHFFFAOYSA-N
COMPOUNDCLASS: Cer_NP
RETENTIONTIME: 
COMMENT: 
Num Peaks: 13
584.489562	10
524.468433	999
506.457868	100
488.447304	200
336.290803	700
324.290803	700
322.275153	200
306.280238	200
281.248604	500
280.264588	250
211.170354	500
199.170354	200
169.159789	50

NAME: Cer 14:0;O3/20:4
PRECURSORMZ: 606.4739
PRECURSORTYPE: [M+CH3COO]-
IONMODE: Negative
FORMULA: C34H61NO4
SMILES: O=C(NC(CO)C(O)C(O)CCCCCCCCCC)CCCCCCC=CCC=CCC=CCC=CCC
INCHIKEY: BRWLEZGVFNUPND-UHFFFAOYSA-N
COMPOUNDCLASS: Cer_NP
RETENTIONTIME: 
COMMENT: 
Num Peaks: 13
606.473912	10
546.452783	999
528.442218	100
510.431654	200
358.275153	700
346.275153	700
344.259503	200
328.264588	200
303.232954	500
302.248938	250
211.170354	500
199.170354	200
169.159789	50

NAME: Cer 18:1;O3/14:0
PRECURSORMZ: 584.4896
PRECURSORTYPE: [M+CH3COO]-
IONMODE: Negative
FORMULA: C32H63NO4
SMILES: O=C(NC(CO)C(O)C(O)CCCC=CCCCCCCCCC)CCCCCCCCCCCCC
INCHIKEY: CAMZKUPIYHEWEM-UHFFFAOYSA-N
COMPOUNDCLASS: Cer_NP
RETENTIONTIME: 
COMMENT: 
Num Peaks: 13
584.489562	10
524.468433	999
506.457868	100
488.447304	200
282.243853	700
270.243853	700
268.228203	200
265.217304	500
253.217304	200
252.233288	200
227.201654	500
226.217638	250
223.206739	50

NAME: Cer 18:1;O3/20:4
PRECURSORMZ: 660.5209
PRECURSORTYPE: [M+CH3COO]-
IONMODE: Negative
FORMULA: C38H67NO4
SMILES: O=C(NC(CO)C(O)C(O)CCCC=CCCCCCCCCC)CCCCCCC=CCC=CCC=CCC=CCC
INCHIKEY: BALKVZXHIJAOEQ-UHFFFAOYSA-N
COMPOUNDCLASS: Cer_NP
RETENTIONTIME: 
COMMENT: 
Num Peaks: 13
660.520863	10
600.499733	999
582.489169	100
564.478604	200
358.275153	700
346.275153	700
344.259503	200
328.264588	200
303.232954	500
302.248938	250
265.217304	500
253.217304	200
223.206739	50

NAME: Cer 14:0;O3/18:1
PRECURSORMZ: 524.4684
PRECURSORTYPE: [M-H]-
IONMODE: Negative
FORMULA: C32H63NO4
SMILES: O=C(NC(CO)C(O)C(O)CCCCCCCCCC)CCCCCCCC=CCCCCCCCC
INCHIKEY: INENOSXDOADVNF-UHFFFAOYSA-N
COMPOUNDCLASS: Cer_NP
RETENTIONTIME: 
COMMENT: 
Num Peaks: 12
524.468433	999
506.457868	100
488.447304	200
336.290803	700
324.290803	700
322.275153	200
306.280238	200
281.248604	500
280.264588	250
211.170354	500
199.170354	200
169.159789	50

NAME: Cer 14:0;O3/20:4
PRECURSORMZ: 546.4528
PRECURSORTYPE: [M-H]-
IONMODE: Negative
FORMULA: C34H61NO4
SMILES: O=C(NC(CO)C(O)C(O)CCCCCCCCCC)CCCCCCC=CCC=CCC=CCC=CCC
INCHIKEY: BRWLEZGVFNUPND-UHFFFAOYSA-N
COMPOUNDCLASS: Cer_NP
RETENTIONTIME: 
COMMENT: 
Num Peaks: 12
546.452783	999
528.442218	100
510.431654	200
358.275153	700
346.275153	700
344.259503	200
328.264588	200
303.232954	500
302.248938	250
211.170354	500
199.170354	200
169.159789	50

NAME: Cer 18:1;O3/14:0
PRECURSORMZ: 524.4684
PRECURSORTYPE: [M-H]-
IONMODE: Negative
FORMULA: C32H63NO4
SMILES: O=C(NC(CO)C(O)C(O)CCCC=CCCCCCCCCC)CCCCCCCCCCCCC
INCHIKEY: CAMZKUPIYHEWEM-UHFFFAOYSA-N
COMPOUNDCLASS: Cer_NP
RETENTIONTIME: 
COMMENT: 
Num Peaks: 12
524.468433	999
506.457868	100
488.447304	200
282.243853	700
270.243853	700
268.228203	200
265.217304	500
253.217304	200
252.233288	200
227.201654	500
226.217638	250
223.206739	50

NAME: Cer 18:1;O3/20:4
PRECURSORMZ: 600.4997
PRECURSORTYPE: [M-H]-
IONMODE: Negative
FORMULA: C38H67NO4
SMILES: O=C(NC(CO)C(O)C(O)CCCC=CCCCCCCCCC)CCCCCCC=CCC=CCC=CCC=CCC
INCHIKEY: BALKVZXHIJAOEQ-UHFFFAOYSA-N
COMPOUNDCLASS: Cer_NP
RETENTIONTIME: 
COMMENT: 
Num Peaks: 12
600.499733	999
582.489169	100
564.478604	200
358.275153	700
346.275153	700
344.259503	200
328.264588	200
303.232954	500
302.248938	250
265.217304	500
253.217304	200
223.206739	50

NAME: Cer 14:0;O3/18:1
PRECURSORMZ: 526.483
PRECURSORTYPE: [M+H]+
IONMODE: Positive
FORMULA: C32H63NO4
SMILES: O=C(NC(CO)C(O)C(O)CCCCCCCCCC)CCCCCCCC=CCCCCCCCC
INCHIKEY: INENOSXDOADVNF-UHFFFAOYSA-N
COMPOUNDCLASS: Cer_NP
RETENTIONTIME: 
COMMENT: 
Num Peaks: 8
526.482986	50
508.472421	800
490.461857	200
280.263491	300
244.227106	800
226.216541	800
208.205976	999
196.205976	200

NAME: Cer 14:0;O3/20:4
PRECURSORMZ: 548.4673
PRECURSORTYPE: [M+H]+
IONMODE: Positive
FORMULA: C34H61NO4
SMILES: O=C(NC(CO)C(O)C(O)CCCCCCCCCC)CCCCCCC=CCC=CCC=CCC=CCC
INCHIKEY: BRWLEZGVFNUPND-UHFFFAOYSA-N
COMPOUNDCLASS: Cer_NP
RETENTIONTIME: 
COMMENT: 
Num Peaks: 8
548.467336	50
530.456771	800
512.446206	200
302.247841	300
244.227106	800
226.216541	800
208.205976	999
196.205976	200

NAME: Cer 18:1;O3/14:0
PRECURSORMZ: 526.483
PRECURSORTYPE: [M+H]+
IONMODE: Positive
FORMULA: C32H63NO4
SMILES: O=C(NC(CO)C(O)C(O)CCCC=CCCCCCCCCC)CCCCCCCCCCCCC
INCHIKEY: CAMZKUPIYHEWEM-UHFFFAOYSA-N
COMPOUNDCLASS: Cer_NP
RETENTIONTIME: 
COMMENT: 
Num Peaks: 8
526.482986	50
508.472421	800
490.461857	200
298.274056	800
280.263491	800
262.252926	999
250.252926	200
226.216541	300

NAME: Cer 18:1;O3/20:4
PRECURSORMZ: 602.5143
PRECURSORTYPE: [M+H]+
IONMODE: Positive
FORMULA: C38H67NO4
SMILES: O=C(NC(CO)C(O)C(O)CCCC=CCCCCCCCCC)CCCCCCC=CCC=CCC=CCC=CCC
INCHIKEY: BALKVZXHIJAOEQ-UHFFFAOYSA-N
COMPOUNDCLASS: Cer_NP
RETENTIONTIME: 
COMMENT: 
Num Peaks: 8
602.514286	50
584.503721	800
566.493157	200
302.247841	300
298.274056	800
280.263491	800
262.252926	999
250.252926	200

NAME: Cer 14:0;O3/18:1
PRECURSORMZ: 548.4649
PRECURSORTYPE: [M+Na]+
IONMODE: Positive
FORMULA: C32H63NO4
SMILES: O=C(NC(CO)C(O)C(O)CCCCCCCCCC)CCCCCCCC=CCCCCCCCC
INCHIKEY: INENOSXDOADVNF-UHFFFAOYSA-N
COMPOUNDCLASS: Cer_NP
RETENTIONTIME: 
COMMENT: 
Num Peaks: 2
548.46493	999
226.216541	50

NAME: Cer 14:0;O3/20:4
PRECURSORMZ: 570.4493
PRECURSORTYPE: [M+Na]+
IONMODE: Positive
FORMULA: C34H61NO4
SMILES: O=C(NC(CO)C(O)C(O)CCCCCCCCCC)CCCCCCC=CCC=CCC=CCC=CCC
INCHIKEY: BRWLEZGVFNUPND-UHFFFAOYSA-N
COMPOUNDCLASS: Cer_NP
RETENTIONTIME: 
COMMENT: 
Num Peaks: 2
570.44928	999
226.216541	50

NAME: Cer 18:1;O3/14:0
PRECURSORMZ: 548.4649
PRECURSORTYPE: [M+Na]+
IONMODE: Positive
FORMULA: C32H63NO4
SMILES: O=C(NC(CO)C(O)C(O)CCCC=CCCCCCCCCC)CCCCCCCCCCCCC
INCHIKEY: CAMZKUPIYHEWEM-UHFFFAOYSA-N
COMPOUNDCLASS: Cer_NP
RETENTIONTIME: 
COMMENT: 
Num Peaks: 2
548.46493	999
280.263491	50

NAME: Cer 18:1;O3/20:4
PRECURSORMZ: 624.4962
PRECURSORTYPE: [M+Na]+
IONMODE: Positive
FORMULA: C38H67NO4
SMILES: O=C(NC(CO)C(O)C(O)CCCC=CCCCCCCCCC)CCCCCCC=CCC=CCC=CCC=CCC
INCHIKEY: BALKVZXHIJAOEQ-UHFFFAOYSA-N
COMPOUNDCLASS: Cer_NP
RETENTIONTIME: 
COMMENT: 
Num Peaks: 2
624.49623	999
280.263491	50

NAME: Cer_d7 18:1;O2/32:0
PRECURSORMZ: 813.8046
PRECURSORTYPE: [M+HCOO]-
IONMODE: Negative
FORMULA: C50H92D7NO3
SMILES: OCC(NC(CCCCCCCCCCCCCCCCCCCCCCCCCCCCCCC)=O)C(\C=C\CCCCCCCCCCC(C(C([2H])([2H])[2H])([2H])[2H])([2H])[2H])O
INCHIKEY: MUQBXENBHQWWAY-GXZBWUKWSA-N
COMPOUNDCLASS: Cer_NS_d7
RETENTIONTIME: 
COMMENT: 
Num Peaks: 11
813.804636	100
767.799157	999
737.788592	300
735.772942	200
719.778027	200
520.509904	200
504.514989	500
478.499339	300
461.47279	300
270.281976	300
244.266326	300

NAME: Cer_d7 18:1;O2/32:0
PRECURSORMZ: 751.8031
PRECURSORTYPE: [M+H-H2O]+
IONMODE: Positive
FORMULA: C50H92D7NO3
SMILES: OCC(NC(CCCCCCCCCCCCCCCCCCCCCCCCCCCCCCC)=O)C(\C=C\CCCCCCCCCCC(C(C([2H])([2H])[2H])([2H])[2H])([2H])[2H])O
INCHIKEY: MUQBXENBHQWWAY-GXZBWUKWSA-N
COMPOUNDCLASS: Cer_NS_d7
RETENTIONTIME: 
COMMENT: 
Num Peaks: 6
751.803145	100
733.79258	100
480.513892	100
289.323078	200
271.312514	999
259.312514	200

NAME: Cer_d7 18:1;O2/32:0
PRECURSORMZ: 827.8203
PRECURSORTYPE: [M+CH3COO]-
IONMODE: Negative
FORMULA: C50H92D7NO3
SMILES: OCC(NC(CCCCCCCCCCCCCCCCCCCCCCCCCCCCCCC)=O)C(\C=C\CCCCCCCCCCC(C(C([2H])([2H])[2H])([2H])[2H])([2H])[2H])O
INCHIKEY: MUQBXENBHQWWAY-GXZBWUKWSA-N
COMPOUNDCLASS: Cer_NS_d7
RETENTIONTIME: 
COMMENT: 
Num Peaks: 11
827.820286	100
767.799157	999
737.788592	300
735.772942	200
719.778027	200
520.509904	200
504.514989	500
478.499339	300
461.47279	300
270.281976	300
244.266326	300

NAME: Cer_d7 18:1;O2/32:0
PRECURSORMZ: 767.7992
PRECURSORTYPE: [M-H]-
IONMODE: Negative
FORMULA: C50H92D7NO3
SMILES: OCC(NC(CCCCCCCCCCCCCCCCCCCCCCCCCCCCCCC)=O)C(\C=C\CCCCCCCCCCC(C(C([2H])([2H])[2H])([2H])[2H])([2H])[2H])O
INCHIKEY: MUQBXENBHQWWAY-GXZBWUKWSA-N
COMPOUNDCLASS: Cer_NS_d7
RETENTIONTIME: 
COMMENT: 
Num Peaks: 10
767.799157	999
737.788592	300
735.772942	200
719.778027	200
520.509904	200
504.514989	500
478.499339	300
461.47279	300
270.281976	300
244.266326	300

NAME: Cer_d7 18:1;O2/32:0
PRECURSORMZ: 769.8137
PRECURSORTYPE: [M+H]+
IONMODE: Positive
FORMULA: C50H92D7NO3
SMILES: OCC(NC(CCCCCCCCCCCCCCCCCCCCCCCCCCCCCCC)=O)C(\C=C\CCCCCCCCCCC(C(C([2H])([2H])[2H])([2H])[2H])([2H])[2H])O
INCHIKEY: MUQBXENBHQWWAY-GXZBWUKWSA-N
COMPOUNDCLASS: Cer_NS_d7
RETENTIONTIME: 
COMMENT: 
Num Peaks: 7
769.81371	50
751.803145	100
733.79258	100
480.513892	100
289.323078	200
271.312514	999
259.312514	200

NAME: Cer_d7 18:1;O2/32:0
PRECURSORMZ: 791.7957
PRECURSORTYPE: [M+Na]+
IONMODE: Positive
FORMULA: C50H92D7NO3
SMILES: OCC(NC(CCCCCCCCCCCCCCCCCCCCCCCCCCCCCCC)=O)C(\C=C\CCCCCCCCCCC(C(C([2H])([2H])[2H])([2H])[2H])([2H])[2H])O
INCHIKEY: MUQBXENBHQWWAY-GXZBWUKWSA-N
COMPOUNDCLASS: Cer_NS_d7
RETENTIONTIME: 
COMMENT: 
Num Peaks: 2
791.795654	999
271.312514	50

NAME: Cer 18:1;O2/14:0
PRECURSORMZ: 554.479
PRECURSORTYPE: [M+HCOO]-
IONMODE: Negative
FORMULA: C32H63NO3
SMILES: O=C(NC(CO)C(O)C=CCCCCCCCCCCCCC)CCCCCCCCCCCCC
INCHIKEY: ZKRPGPZHULJLKJ-UHFFFAOYSA-N
COMPOUNDCLASS: Cer_NS
RETENTIONTIME: 
COMMENT: 
Num Peaks: 11
554.478998	100
508.473518	999
478.462954	300
476.447304	200
460.452389	200
268.228203	200
263.238039	300
252.233288	500
237.222389	300
226.217638	300
209.191089	300

NAME: Cer 18:1;O2/20:4
PRECURSORMZ: 630.5103
PRECURSORTYPE: [M+HCOO]-
IONMODE: Negative
FORMULA: C38H67NO3
SMILES: O=C(NC(CO)C(O)C=CCCCCCCCCCCCCC)CCCCCCC=CCC=CCC=CCC=CCC
INCHIKEY: VSYWEZHQFWHKJK-UHFFFAOYSA-N
COMPOUNDCLASS: Cer_NS
RETENTIONTIME: 
COMMENT: 
Num Peaks: 11
630.510298	100
584.504819	999
554.494254	300
552.478604	200
536.483689	200
344.259503	200
328.264588	500
302.248938	300
285.222389	300
263.238039	300
237.222389	300

NAME: Cer 18:1;O2/14:0
PRECURSORMZ: 492.4775
PRECURSORTYPE: [M+H-H2O]+
IONMODE: Positive
FORMULA: C32H63NO3
SMILES: O=C(NC(CO)C(O)C=CCCCCCCCCCCCCC)CCCCCCCCCCCCC
INCHIKEY: ZKRPGPZHULJLKJ-UHFFFAOYSA-N
COMPOUNDCLASS: Cer_NS
RETENTIONTIME: 
COMMENT: 
Num Peaks: 6
492.477507	100
474.466942	100
282.279141	200
264.268576	999
252.268576	200
228.232191	100

NAME: Cer 18:1;O2/20:4
PRECURSORMZ: 568.5088
PRECURSORTYPE: [M+H-H2O]+
IONMODE: Positive
FORMULA: C38H67NO3
SMILES: O=C(NC(CO)C(O)C=CCCCCCCCCCCCCC)CCCCCCC=CCC=CCC=CCC=CCC
INCHIKEY: VSYWEZHQFWHKJK-UHFFFAOYSA-N
COMPOUNDCLASS: Cer_NS
RETENTIONTIME: 
COMMENT: 
Num Peaks: 6
568.508807	100
550.498242	100
304.263491	100
282.279141	200
264.268576	999
252.268576	200

NAME: Cer 18:1;O2/14:0
PRECURSORMZ: 568.4946
PRECURSORTYPE: [M+CH3COO]-
IONMODE: Negative
FORMULA: C32H63NO3
SMILES: O=C(NC(CO)C(O)C=CCCCCCCCCCCCCC)CCCCCCCCCCCCC
INCHIKEY: ZKRPGPZHULJLKJ-UHFFFAOYSA-N
COMPOUNDCLASS: Cer_NS
RETENTIONTIME: 
COMMENT: 
Num Peaks: 11
568.494648	100
508.473518	999
478.462954	300
476.447304	200
460.452389	200
268.228203	200
263.238039	300
252.233288	500
237.222389	300
226.217638	300
209.191089	300

NAME: Cer 18:1;O2/20:4
PRECURSORMZ: 644.5259
PRECURSORTYPE: [M+CH3COO]-
IONMODE: Negative
FORMULA: C38H67NO3
SMILES: O=C(NC(CO)C(O)C=CCCCCCCCCCCCCC)CCCCCCC=CCC=CCC=CCC=CCC
INCHIKEY: VSYWEZHQFWHKJK-UHFFFAOYSA-N
COMPOUNDCLASS: Cer_NS
RETENTIONTIME: 
COMMENT: 
Num Peaks: 11
644.525948	100
584.504819	999
554.494254	300
552.478604	200
536.483689	200
344.259503	200
328.264588	500
302.248938	300
285.222389	300
263.238039	300
237.222389	300

NAME: Cer 18:1;O2/14:0
PRECURSORMZ: 508.4735
PRECURSORTYPE: [M-H]-
IONMODE: Negative
FORMULA: C32H63NO3
SMILES: O=C(NC(CO)C(O)C=CCCCCCCCCCCCCC)CCCCCCCCCCCCC
INCHIKEY: ZKRPGPZHULJLKJ-UHFFFAOYSA-N
COMPOUNDCLASS: Cer_NS
RETENTIONTIME: 
COMMENT: 
Num Peaks: 10
508.473518	999
478.462954	300
476.447304	200
460.452389	200
268.228203	200
263.238039	300
252.233288	500
237.222389	300
226.217638	300
209.191089	300

NAME: Cer 18:1;O2/20:4
PRECURSORMZ: 584.5048
PRECURSORTYPE: [M-H]-
IONMODE: Negative
FORMULA: C38H67NO3
SMILES: O=C(NC(CO)C(O)C=CCCCCCCCCCCCCC)CCCCCCC=CCC=CCC=CCC=CCC
INCHIKEY: VSYWEZHQFWHKJK-UHFFFAOYSA-N
COMPOUNDCLASS: Cer_NS
RETENTIONTIME: 
COMMENT: 
Num Peaks: 10
584.504819	999
554.494254	300
552.478604	200
536.483689	200
344.259503	200
328.264588	500
302.248938	300
285.222389	300
263.238039	300
237.222389	300

NAME: Cer 18:1;O2/14:0
PRECURSORMZ: 510.4881
PRECURSORTYPE: [M+H]+
IONMODE: Positive
FORMULA: C32H63NO3
SMILES: O=C(NC(CO)C(O)C=CCCCCCCCCCCCCC)CCCCCCCCCCCCC
INCHIKEY: ZKRPGPZHULJLKJ-UHFFFAOYSA-N
COMPOUNDCLASS: Cer_NS
RETENTIONTIME: 
COMMENT: 
Num Peaks: 7
510.488071	50
492.477507	100
474.466942	100
282.279141	200
264.268576	999
252.268576	200
228.232191	100

NAME: Cer 18:1;O2/20:4
PRECURSORMZ: 586.5194
PRECURSORTYPE: [M+H]+
IONMODE: Positive
FORMULA: C38H67NO3
SMILES: O=C(NC(CO)C(O)C=CCCCCCCCCCCCCC)CCCCCCC=CCC=CCC=CCC=CCC
INCHIKEY: VSYWEZHQFWHKJK-UHFFFAOYSA-N
COMPOUNDCLASS: Cer_NS
RETENTIONTIME: 
COMMENT: 
Num Peaks: 7
586.519371	50
568.508807	100
550.498242	100
304.263491	100
282.279141	200
264.268576	999
252.268576	200

NAME: Cer 18:1;O2/14:0
PRECURSORMZ: 532.47
PRECURSORTYPE: [M+Na]+
IONMODE: Positive
FORMULA: C32H63NO3
SMILES: O=C(NC(CO)C(O)C=CCCCCCCCCCCCCC)CCCCCCCCCCCCC
INCHIKEY: ZKRPGPZHULJLKJ-UHFFFAOYSA-N
COMPOUNDCLASS: Cer_NS
RETENTIONTIME: 
COMMENT: 
Num Peaks: 2
532.470016	999
264.268576	50

NAME: Cer 18:1;O2/20:4
PRECURSORMZ: 608.5013
PRECURSORTYPE: [M+Na]+
IONMODE: Positive
FORMULA: C38H67NO3
SMILES: O=C(NC(CO)C(O)C=CCCCCCCCCCCCCC)CCCCCCC=CCC=CCC=CCC=CCC
INCHIKEY: VSYWEZHQFWHKJK-UHFFFAOYSA-N
COMPOUNDCLASS: Cer_NS
RETENTIONTIME: 
COMMENT: 
Num Peaks: 2
608.501316	999
264.268576	50

NAME: Hex2Cer 28:0;O2
PRECURSORMZ: 824.5377
PRECURSORTYPE: [M+HCOO]-
IONMODE: Negative
FORMULA: C40H77NO13
SMILES: O=C(NC(COC1OC(CO)C(OC2OC(CO)C(O)C(O)C2O)C(O)C1O)C(O)CCCCCCCCCCC)CCCCCCCCCCCCC
INCHIKEY: JFYITXFXXSMSSP-UHFFFAOYSA-N
COMPOUNDCLASS: Hex2Cer
RETENTIONTIME: 
COMMENT: 
Num Peaks: 6
824.537694	30
778.532215	999
616.479392	100
454.426568	100
179.056112	100
89.024418	50

NAME: Hex2Cer 32:1;O2
PRECURSORMZ: 878.5846
PRECURSORTYPE: [M+HCOO]-
IONMODE: Negative
FORMULA: C44H83NO13
SMILES: O=C(NC(COC1OC(CO)C(OC2OC(CO)C(O)C(O)C2O)C(O)C1O)C(O)CCCCCCCCCCC)CCCCCCCC=CCCCCCCCC
INCHIKEY: YKWXCOXJOIYTBD-UHFFFAOYSA-N
COMPOUNDCLASS: Hex2Cer
RETENTIONTIME: 
COMMENT: 
Num Peaks: 6
878.584645	30
832.579165	999
670.526342	100
508.473518	100
179.056112	100
89.024418	50

NAME: Hex2Cer 34:4;O2
PRECURSORMZ: 900.569
PRECURSORTYPE: [M+HCOO]-
IONMODE: Negative
FORMULA: C46H81NO13
SMILES: O=C(NC(COC1OC(CO)C(OC2OC(CO)C(O)C(O)C2O)C(O)C1O)C(O)CCCCCCCCCCC)CCCCCCC=CCC=CCC=CCC=CCC
INCHIKEY: PRXJZSGXKOTDOF-UHFFFAOYSA-N
COMPOUNDCLASS: Hex2Cer
RETENTIONTIME: 
COMMENT: 
Num Peaks: 6
900.568995	30
854.563515	999
692.510692	100
530.457868	100
179.056112	100
89.024418	50

NAME: Hex2Cer 36:2;O2
PRECURSORMZ: 932.6316
PRECURSORTYPE: [M+HCOO]-
IONMODE: Negative
FORMULA: C48H89NO13
SMILES: O=C(NC(COC1OC(CO)C(OC2OC(CO)C(O)C(O)C2O)C(O)C1O)C(O)C=CCCCCCCCCCCCCC)CCCCCCCC=CCCCCCCCC
INCHIKEY: YVBUQOZKCCPFCZ-UHFFFAOYSA-N
COMPOUNDCLASS: Hex2Cer
RETENTIONTIME: 
COMMENT: 
Num Peaks: 6
932.631595	30
886.626115	999
724.573292	100
562.520469	100
179.056112	100
89.024418	50

NAME: Hex2Cer 38:5;O2
PRECURSORMZ: 954.6159
PRECURSORTYPE: [M+HCOO]-
IONMODE: Negative
FORMULA: C50H87NO13
SMILES: O=C(NC(COC1OC(CO)C(OC2OC(CO)C(O)C(O)C2O)C(O)C1O)C(O)C=CCCCCCCCCCCCCC)CCCCCCC=CCC=CCC=CCC=CCC
INCHIKEY: AOMMRYRCYXENMV-UHFFFAOYSA-N
COMPOUNDCLASS: Hex2Cer
RETENTIONTIME: 
COMMENT: 
Num Peaks: 6
954.615945	30
908.610465	999
746.557642	100
584.504819	100
179.056112	100
89.024418	50

NAME: Hex2Cer 28:0;O2
PRECURSORMZ: 838.5533
PRECURSORTYPE: [M+CH3COO]-
IONMODE: Negative
FORMULA: C40H77NO13
SMILES: O=C(NC(COC1OC(CO)C(OC2OC(CO)C(O)C(O)C2O)C(O)C1O)C(O)CCCCCCCCCCC)CCCCCCCCCCCCC
INCHIKEY: JFYITXFXXSMSSP-UHFFFAOYSA-N
COMPOUNDCLASS: Hex2Cer
RETENTIONTIME: 
COMMENT: 
Num Peaks: 6
838.553344	30
778.532215	999
616.479392	100
454.426568	100
179.056112	100
89.024418	50

NAME: Hex2Cer 32:1;O2
PRECURSORMZ: 892.6003
PRECURSORTYPE: [M+CH3COO]-
IONMODE: Negative
FORMULA: C44H83NO13
SMILES: O=C(NC(COC1OC(CO)C(OC2OC(CO)C(O)C(O)C2O)C(O)C1O)C(O)CCCCCCCCCCC)CCCCCCCC=CCCCCCCCC
INCHIKEY: YKWXCOXJOIYTBD-UHFFFAOYSA-N
COMPOUNDCLASS: Hex2Cer
RETENTIONTIME: 
COMMENT: 
Num Peaks: 6
892.600295	30
832.579165	999
670.526342	100
508.473518	100
179.056112	100
89.024418	50

NAME: Hex2Cer 34:4;O2
PRECURSORMZ: 914.5846
PRECURSORTYPE: [M+CH3COO]-
IONMODE: Negative
FORMULA: C46H81NO13
SMILES: O=C(NC(COC1OC(CO)C(OC2OC(CO)C(O)C(O)C2O)C(O)C1O)C(O)CCCCCCCCCCC)CCCCCCC=CCC=CCC=CCC=CCC
INCHIKEY: PRXJZSGXKOTDOF-UHFFFAOYSA-N
COMPOUNDCLASS: Hex2Cer
RETENTIONTIME: 
COMMENT: 
Num Peaks: 6
914.584645	30
854.563515	999
692.510692	100
530.457868	100
179.056112	100
89.024418	50

NAME: Hex2Cer 36:2;O2
PRECURSORMZ: 946.6472
PRECURSORTYPE: [M+CH3COO]-
IONMODE: Negative
FORMULA: C48H89NO13
SMILES: O=C(NC(COC1OC(CO)C(OC2OC(CO)C(O)C(O)C2O)C(O)C1O)C(O)C=CCCCCCCCCCCCCC)CCCCCCCC=CCCCCCCCC
INCHIKEY: YVBUQOZKCCPFCZ-UHFFFAOYSA-N
COMPOUNDCLASS: Hex2Cer
RETENTIONTIME: 
COMMENT: 
Num Peaks: 6
946.647245	30
886.626115	999
724.573292	100
562.520469	100
179.056112	100
89.024418	50

NAME: Hex2Cer 38:5;O2
PRECURSORMZ: 968.6316
PRECURSORTYPE: [M+CH3COO]-
IONMODE: Negative
FORMULA: C50H87NO13
SMILES: O=C(NC(COC1OC(CO)C(OC2OC(CO)C(O)C(O)C2O)C(O)C1O)C(O)C=CCCCCCCCCCCCCC)CCCCCCC=CCC=CCC=CCC=CCC
INCHIKEY: AOMMRYRCYXENMV-UHFFFAOYSA-N
COMPOUNDCLASS: Hex2Cer
RETENTIONTIME: 
COMMENT: 
Num Peaks: 6
968.631595	30
908.610465	999
746.557642	100
584.504819	100
179.056112	100
89.024418	50

NAME: Hex2Cer 14:0;O2/18:1
PRECURSORMZ: 834.5937
PRECURSORTYPE: [M+H]+
IONMODE: Positive
FORMULA: C44H83NO13
SMILES: O=C(NC(COC1OC(CO)C(OC2OC(CO)C(O)C(O)C2O)C(O)C1O)C(O)CCCCCCCCCCC)CCCCCCCC=CCCCCCCCC
INCHIKEY: YKWXCOXJOIYTBD-UHFFFAOYSA-N
COMPOUNDCLASS: Hex2Cer
RETENTIONTIME: 
COMMENT: 
Num Peaks: 11
834.593718	50
816.583153	999
672.540895	50
654.53033	500
636.519765	50
510.488071	50
492.477507	400
474.466942	100
228.232191	50
210.221626	500
198.221626	50

NAME: Hex2Cer 14:0;O2/20:4
PRECURSORMZ: 856.5781
PRECURSORTYPE: [M+H]+
IONMODE: Positive
FORMULA: C46H81NO13
SMILES: O=C(NC(COC1OC(CO)C(OC2OC(CO)C(O)C(O)C2O)C(O)C1O)C(O)CCCCCCCCCCC)CCCCCCC=CCC=CCC=CCC=CCC
INCHIKEY: PRXJZSGXKOTDOF-UHFFFAOYSA-N
COMPOUNDCLASS: Hex2Cer
RETENTIONTIME: 
COMMENT: 
Num Peaks: 11
856.578068	50
838.567503	999
694.525245	50
676.51468	500
658.504115	50
532.472421	50
514.461857	400
496.451292	100
228.232191	50
210.221626	500
198.221626	50

NAME: Hex2Cer 18:1;O2/14:0
PRECURSORMZ: 834.5937
PRECURSORTYPE: [M+H]+
IONMODE: Positive
FORMULA: C44H83NO13
SMILES: O=C(NC(COC1OC(CO)C(OC2OC(CO)C(O)C(O)C2O)C(O)C1O)C(O)C=CCCCCCCCCCCCCC)CCCCCCCCCCCCC
INCHIKEY: JUDDTKPKWSMGFS-UHFFFAOYSA-N
COMPOUNDCLASS: Hex2Cer
RETENTIONTIME: 
COMMENT: 
Num Peaks: 11
834.593718	50
816.583153	999
672.540895	50
654.53033	500
636.519765	50
510.488071	50
492.477507	400
474.466942	100
282.279141	50
264.268576	500
252.268576	50

NAME: Hex2Cer 18:1;O2/20:4
PRECURSORMZ: 910.625
PRECURSORTYPE: [M+H]+
IONMODE: Positive
FORMULA: C50H87NO13
SMILES: O=C(NC(COC1OC(CO)C(OC2OC(CO)C(O)C(O)C2O)C(O)C1O)C(O)C=CCCCCCCCCCCCCC)CCCCCCC=CCC=CCC=CCC=CCC
INCHIKEY: AOMMRYRCYXENMV-UHFFFAOYSA-N
COMPOUNDCLASS: Hex2Cer
RETENTIONTIME: 
COMMENT: 
Num Peaks: 11
910.625018	50
892.614454	999
748.572195	50
730.56163	500
712.551065	50
586.519371	50
568.508807	400
550.498242	100
282.279141	50
264.268576	500
252.268576	50

NAME: Hex3Cer 28:0;O2
PRECURSORMZ: 986.5905
PRECURSORTYPE: [M+HCOO]-
IONMODE: Negative
FORMULA: C46H87NO18
SMILES: O=C(NC(COC1OC(CO)C(OC2OC(CO)C(OC3OC(CO)C(O)C(O)C3O)C(O)C2O)C(O)C1O)C(O)CCCCCCCCCCC)CCCCCCCCCCCCC
INCHIKEY: UECVITMTFHISBC-UHFFFAOYSA-N
COMPOUNDCLASS: Hex3Cer
RETENTIONTIME: 
COMMENT: 
Num Peaks: 7
986.590518	30
940.585039	999
778.532215	80
616.479392	125
454.426568	50
179.056112	35
161.045547	15

NAME: Hex3Cer 32:1;O2
PRECURSORMZ: 1040.6375
PRECURSORTYPE: [M+HCOO]-
IONMODE: Negative
FORMULA: C50H93NO18
SMILES: O=C(NC(COC1OC(CO)C(OC2OC(CO)C(OC3OC(CO)C(O)C(O)C3O)C(O)C2O)C(O)C1O)C(O)CCCCCCCCCCC)CCCCCCCC=CCCCCCCCC
INCHIKEY: RJFPMWJBVXNUHW-UHFFFAOYSA-N
COMPOUNDCLASS: Hex3Cer
RETENTIONTIME: 
COMMENT: 
Num Peaks: 7
1040.637468	30
994.631989	999
832.579165	80
670.526342	125
508.473518	50
179.056112	35
161.045547	15

NAME: Hex3Cer 34:4;O2
PRECURSORMZ: 1062.6218
PRECURSORTYPE: [M+HCOO]-
IONMODE: Negative
FORMULA: C52H91NO18
SMILES: O=C(NC(COC1OC(CO)C(OC2OC(CO)C(OC3OC(CO)C(O)C(O)C3O)C(O)C2O)C(O)C1O)C(O)CCCCCCCCCCC)CCCCCCC=CCC=CCC=CCC=CCC
INCHIKEY: GYDKAGJTCLSWSP-UHFFFAOYSA-N
COMPOUNDCLASS: Hex3Cer
RETENTIONTIME: 
COMMENT: 
Num Peaks: 7
1062.621818	30
1016.616339	999
854.563515	80
692.510692	125
530.457868	50
179.056112	35
161.045547	15

NAME: Hex3Cer 36:2;O2
PRECURSORMZ: 1094.6844
PRECURSORTYPE: [M+HCOO]-
IONMODE: Negative
FORMULA: C54H99NO18
SMILES: O=C(NC(COC1OC(CO)C(OC2OC(CO)C(OC3OC(CO)C(O)C(O)C3O)C(O)C2O)C(O)C1O)C(O)C=CCCCCCCCCCCCCC)CCCCCCCC=CCCCCCCCC
INCHIKEY: XRPQSEBNLXORQZ-UHFFFAOYSA-N
COMPOUNDCLASS: Hex3Cer
RETENTIONTIME: 
COMMENT: 
Num Peaks: 7
1094.684418	30
1048.678939	999
886.626115	80
724.573292	125
562.520469	50
179.056112	35
161.045547	15

NAME: Hex3Cer 38:5;O2
PRECURSORMZ: 1116.6688
PRECURSORTYPE: [M+HCOO]-
IONMODE: Negative
FORMULA: C56H97NO18
SMILES: O=C(NC(COC1OC(CO)C(OC2OC(CO)C(OC3OC(CO)C(O)C(O)C3O)C(O)C2O)C(O)C1O)C(O)C=CCCCCCCCCCCCCC)CCCCCCC=CCC=CCC=CCC=CCC
INCHIKEY: CTIFIYYWVCGEBK-UHFFFAOYSA-N
COMPOUNDCLASS: Hex3Cer
RETENTIONTIME: 
COMMENT: 
Num Peaks: 7
1116.668768	30
1070.663289	999
908.610465	80
746.557642	125
584.504819	50
179.056112	35
161.045547	15

NAME: Hex3Cer 28:0;O2
PRECURSORMZ: 1000.6062
PRECURSORTYPE: [M+CH3COO]-
IONMODE: Negative
FORMULA: C46H87NO18
SMILES: O=C(NC(COC1OC(CO)C(OC2OC(CO)C(OC3OC(CO)C(O)C(O)C3O)C(O)C2O)C(O)C1O)C(O)CCCCCCCCCCC)CCCCCCCCCCCCC
INCHIKEY: UECVITMTFHISBC-UHFFFAOYSA-N
COMPOUNDCLASS: Hex3Cer
RETENTIONTIME: 
COMMENT: 
Num Peaks: 7
1000.606168	30
940.585039	999
778.532215	80
616.479392	125
454.426568	50
179.056112	35
161.045547	15

NAME: Hex3Cer 32:1;O2
PRECURSORMZ: 1054.6531
PRECURSORTYPE: [M+CH3COO]-
IONMODE: Negative
FORMULA: C50H93NO18
SMILES: O=C(NC(COC1OC(CO)C(OC2OC(CO)C(OC3OC(CO)C(O)C(O)C3O)C(O)C2O)C(O)C1O)C(O)CCCCCCCCCCC)CCCCCCCC=CCCCCCCCC
INCHIKEY: RJFPMWJBVXNUHW-UHFFFAOYSA-N
COMPOUNDCLASS: Hex3Cer
RETENTIONTIME: 
COMMENT: 
Num Peaks: 7
1054.653118	30
994.631989	999
832.579165	80
670.526342	125
508.473518	50
179.056112	35
161.045547	15

NAME: Hex3Cer 34:4;O2
PRECURSORMZ: 1076.6375
PRECURSORTYPE: [M+CH3COO]-
IONMODE: Negative
FORMULA: C52H91NO18
SMILES: O=C(NC(COC1OC(CO)C(OC2OC(CO)C(OC3OC(CO)C(O)C(O)C3O)C(O)C2O)C(O)C1O)C(O)CCCCCCCCCCC)CCCCCCC=CCC=CCC=CCC=CCC
INCHIKEY: GYDKAGJTCLSWSP-UHFFFAOYSA-N
COMPOUNDCLASS: Hex3Cer
RETENTIONTIME: 
COMMENT: 
Num Peaks: 7
1076.637468	30
1016.616339	999
854.563515	80
692.510692	125
530.457868	50
179.056112	35
161.045547	15

NAME: Hex3Cer 36:2;O2
PRECURSORMZ: 1108.7001
PRECURSORTYPE: [M+CH3COO]-
IONMODE: Negative
FORMULA: C54H99NO18
SMILES: O=C(NC(COC1OC(CO)C(OC2OC(CO)C(OC3OC(CO)C(O)C(O)C3O)C(O)C2O)C(O)C1O)C(O)C=CCCCCCCCCCCCCC)CCCCCCCC=CCCCCCCCC
INCHIKEY: XRPQSEBNLXORQZ-UHFFFAOYSA-N
COMPOUNDCLASS: Hex3Cer
RETENTIONTIME: 
COMMENT: 
Num Peaks: 7
1108.700068	30
1048.678939	999
886.626115	80
724.573292	125
562.520469	50
179.056112	35
161.045547	15

NAME: Hex3Cer 38:5;O2
PRECURSORMZ: 1130.6844
PRECURSORTYPE: [M+CH3COO]-
IONMODE: Negative
FORMULA: C56H97NO18
SMILES: O=C(NC(COC1OC(CO)C(OC2OC(CO)C(OC3OC(CO)C(O)C(O)C3O)C(O)C2O)C(O)C1O)C(O)C=CCCCCCCCCCCCCC)CCCCCCC=CCC=CCC=CCC=CCC
INCHIKEY: CTIFIYYWVCGEBK-UHFFFAOYSA-N
COMPOUNDCLASS: Hex3Cer
RETENTIONTIME: 
COMMENT: 
Num Peaks: 7
1130.684418	30
1070.663289	999
908.610465	80
746.557642	125
584.504819	50
179.056112	35
161.045547	15

NAME: Hex3Cer 14:0;O2/18:1
PRECURSORMZ: 996.6465
PRECURSORTYPE: [M+H]+
IONMODE: Positive
FORMULA: C50H93NO18
SMILES: O=C(NC(COC1OC(CO)C(OC2OC(CO)C(OC3OC(CO)C(O)C(O)C3O)C(O)C2O)C(O)C1O)C(O)CCCCCCCCCCC)CCCCCCCC=CCCCCCCCC
INCHIKEY: RJFPMWJBVXNUHW-UHFFFAOYSA-N
COMPOUNDCLASS: Hex3Cer
RETENTIONTIME: 
COMMENT: 
Num Peaks: 14
996.646542	50
978.635977	500
834.593718	50
816.583153	300
798.572589	50
672.540895	50
654.53033	300
636.519765	50
510.488071	100
492.477507	999
474.466942	100
228.232191	50
210.221626	400
198.221626	50

NAME: Hex3Cer 14:0;O2/20:4
PRECURSORMZ: 1018.6309
PRECURSORTYPE: [M+H]+
IONMODE: Positive
FORMULA: C52H91NO18
SMILES: O=C(NC(COC1OC(CO)C(OC2OC(CO)C(OC3OC(CO)C(O)C(O)C3O)C(O)C2O)C(O)C1O)C(O)CCCCCCCCCCC)CCCCCCC=CCC=CCC=CCC=CCC
INCHIKEY: GYDKAGJTCLSWSP-UHFFFAOYSA-N
COMPOUNDCLASS: Hex3Cer
RETENTIONTIME: 
COMMENT: 
Num Peaks: 14
1018.630891	50
1000.620327	500
856.578068	50
838.567503	300
820.556939	50
694.525245	50
676.51468	300
658.504115	50
532.472421	100
514.461857	999
496.451292	100
228.232191	50
210.221626	400
198.221626	50

NAME: Hex3Cer 18:1;O2/14:0
PRECURSORMZ: 996.6465
PRECURSORTYPE: [M+H]+
IONMODE: Positive
FORMULA: C50H93NO18
SMILES: O=C(NC(COC1OC(CO)C(OC2OC(CO)C(OC3OC(CO)C(O)C(O)C3O)C(O)C2O)C(O)C1O)C(O)C=CCCCCCCCCCCCCC)CCCCCCCCCCCCC
INCHIKEY: LXYVLUZYKGKFEN-UHFFFAOYSA-N
COMPOUNDCLASS: Hex3Cer
RETENTIONTIME: 
COMMENT: 
Num Peaks: 14
996.646542	50
978.635977	500
834.593718	50
816.583153	300
798.572589	50
672.540895	50
654.53033	300
636.519765	50
510.488071	100
492.477507	999
474.466942	100
282.279141	50
264.268576	400
252.268576	50

NAME: Hex3Cer 18:1;O2/20:4
PRECURSORMZ: 1072.6778
PRECURSORTYPE: [M+H]+
IONMODE: Positive
FORMULA: C56H97NO18
SMILES: O=C(NC(COC1OC(CO)C(OC2OC(CO)C(OC3OC(CO)C(O)C(O)C3O)C(O)C2O)C(O)C1O)C(O)C=CCCCCCCCCCCCCC)CCCCCCC=CCC=CCC=CCC=CCC
INCHIKEY: CTIFIYYWVCGEBK-UHFFFAOYSA-N
COMPOUNDCLASS: Hex3Cer
RETENTIONTIME: 
COMMENT: 
Num Peaks: 14
1072.677842	50
1054.667277	500
910.625018	50
892.614454	300
874.603889	50
748.572195	50
730.56163	300
712.551065	50
586.519371	100
568.508807	999
550.498242	100
282.279141	50
264.268576	400
252.268576	50

NAME: HexCer 14:0;O3/18:1;2OH
PRECURSORMZ: 748.5217
PRECURSORTYPE: [M+HCOO]-
IONMODE: Negative
FORMULA: C38H73NO10
SMILES: O=C(NC(COC1OC(CO)C(O)C(O)C1O)C(O)C(O)CCCCCCCCCC)C(O)CCCCCCC=CCCCCCCCC
INCHIKEY: VIUQJRGTNWFISP-UHFFFAOYSA-N
COMPOUNDCLASS: HexCer_AP
RETENTIONTIME: 
COMMENT: 
Num Peaks: 9
748.52165	10
702.516171	999
540.463348	100
522.452783	100
352.285718	700
322.275153	100
297.243519	200
251.238039	100
179.056112	200

NAME: HexCer 14:0;O3/20:4;2OH
PRECURSORMZ: 770.506
PRECURSORTYPE: [M+HCOO]-
IONMODE: Negative
FORMULA: C40H71NO10
SMILES: O=C(NC(COC1OC(CO)C(O)C(O)C1O)C(O)C(O)CCCCCCCCCC)C(O)CCCCCC=CCC=CCC=CCC=CCC
INCHIKEY: BWRIAAONBCKSDK-UHFFFAOYSA-N
COMPOUNDCLASS: HexCer_AP
RETENTIONTIME: 
COMMENT: 
Num Peaks: 9
770.506	10
724.500521	999
562.447698	100
544.437133	100
374.270068	700
344.259503	100
319.227868	200
273.222389	100
179.056112	200

NAME: HexCer 18:1;O3/14:0;2OH
PRECURSORMZ: 748.5217
PRECURSORTYPE: [M+HCOO]-
IONMODE: Negative
FORMULA: C38H73NO10
SMILES: O=C(NC(COC1OC(CO)C(O)C(O)C1O)C(O)C(O)CCCC=CCCCCCCCCC)C(O)CCCCCCCCCCCC
INCHIKEY: MJHPGALWMXALFF-UHFFFAOYSA-N
COMPOUNDCLASS: HexCer_AP
RETENTIONTIME: 
COMMENT: 
Num Peaks: 9
748.52165	10
702.516171	999
540.463348	100
522.452783	100
298.238768	700
268.228203	100
243.196568	200
197.191089	100
179.056112	200

NAME: HexCer 18:1;O3/20:4;2OH
PRECURSORMZ: 824.553
PRECURSORTYPE: [M+HCOO]-
IONMODE: Negative
FORMULA: C44H77NO10
SMILES: O=C(NC(COC1OC(CO)C(O)C(O)C1O)C(O)C(O)CCCC=CCCCCCCCCC)C(O)CCCCCC=CCC=CCC=CCC=CCC
INCHIKEY: MSAXANSZZPYBTP-UHFFFAOYSA-N
COMPOUNDCLASS: HexCer_AP
RETENTIONTIME: 
COMMENT: 
Num Peaks: 9
824.552951	10
778.547471	999
616.494648	100
598.484083	100
374.270068	700
344.259503	100
319.227868	200
273.222389	100
179.056112	200

NAME: HexCer 14:0;O3/18:1;2OH
PRECURSORMZ: 686.5202
PRECURSORTYPE: [M+H-H2O]+
IONMODE: Positive
FORMULA: C38H73NO10
SMILES: O=C(NC(COC1OC(CO)C(O)C(O)C1O)C(O)C(O)CCCCCCCCCC)C(O)CCCCCCC=CCCCCCCCC
INCHIKEY: VIUQJRGTNWFISP-UHFFFAOYSA-N
COMPOUNDCLASS: HexCer_AP
RETENTIONTIME: 
COMMENT: 
Num Peaks: 6
542.477901	500
524.467336	999
506.456771	300
244.227106	200
226.216541	400
208.205976	200

NAME: HexCer 14:0;O3/20:4;2OH
PRECURSORMZ: 708.5045
PRECURSORTYPE: [M+H-H2O]+
IONMODE: Positive
FORMULA: C40H71NO10
SMILES: O=C(NC(COC1OC(CO)C(O)C(O)C1O)C(O)C(O)CCCCCCCCCC)C(O)CCCCCC=CCC=CCC=CCC=CCC
INCHIKEY: BWRIAAONBCKSDK-UHFFFAOYSA-N
COMPOUNDCLASS: HexCer_AP
RETENTIONTIME: 
COMMENT: 
Num Peaks: 6
564.46225	500
546.451686	999
528.441121	300
244.227106	200
226.216541	400
208.205976	200

NAME: HexCer 18:1;O3/14:0;2OH
PRECURSORMZ: 686.5202
PRECURSORTYPE: [M+H-H2O]+
IONMODE: Positive
FORMULA: C38H73NO10
SMILES: O=C(NC(COC1OC(CO)C(O)C(O)C1O)C(O)C(O)CCCC=CCCCCCCCCC)C(O)CCCCCCCCCCCC
INCHIKEY: MJHPGALWMXALFF-UHFFFAOYSA-N
COMPOUNDCLASS: HexCer_AP
RETENTIONTIME: 
COMMENT: 
Num Peaks: 6
542.477901	500
524.467336	999
506.456771	300
298.274056	200
280.263491	400
262.252926	200

NAME: HexCer 18:1;O3/20:4;2OH
PRECURSORMZ: 762.5515
PRECURSORTYPE: [M+H-H2O]+
IONMODE: Positive
FORMULA: C44H77NO10
SMILES: O=C(NC(COC1OC(CO)C(O)C(O)C1O)C(O)C(O)CCCC=CCCCCCCCCC)C(O)CCCCCC=CCC=CCC=CCC=CCC
INCHIKEY: MSAXANSZZPYBTP-UHFFFAOYSA-N
COMPOUNDCLASS: HexCer_AP
RETENTIONTIME: 
COMMENT: 
Num Peaks: 6
618.509201	500
600.498636	999
582.488071	300
298.274056	200
280.263491	400
262.252926	200

NAME: HexCer 14:0;O3/18:1;2OH
PRECURSORMZ: 762.5373
PRECURSORTYPE: [M+CH3COO]-
IONMODE: Negative
FORMULA: C38H73NO10
SMILES: O=C(NC(COC1OC(CO)C(O)C(O)C1O)C(O)C(O)CCCCCCCCCC)C(O)CCCCCCC=CCCCCCCCC
INCHIKEY: VIUQJRGTNWFISP-UHFFFAOYSA-N
COMPOUNDCLASS: HexCer_AP
RETENTIONTIME: 
COMMENT: 
Num Peaks: 9
762.5373	10
702.516171	999
540.463348	100
522.452783	100
352.285718	700
322.275153	100
297.243519	200
251.238039	100
179.056112	200

NAME: HexCer 14:0;O3/20:4;2OH
PRECURSORMZ: 784.5217
PRECURSORTYPE: [M+CH3COO]-
IONMODE: Negative
FORMULA: C40H71NO10
SMILES: O=C(NC(COC1OC(CO)C(O)C(O)C1O)C(O)C(O)CCCCCCCCCC)C(O)CCCCCC=CCC=CCC=CCC=CCC
INCHIKEY: BWRIAAONBCKSDK-UHFFFAOYSA-N
COMPOUNDCLASS: HexCer_AP
RETENTIONTIME: 
COMMENT: 
Num Peaks: 9
784.52165	10
724.500521	999
562.447698	100
544.437133	100
374.270068	700
344.259503	100
319.227868	200
273.222389	100
179.056112	200

NAME: HexCer 18:1;O3/14:0;2OH
PRECURSORMZ: 762.5373
PRECURSORTYPE: [M+CH3COO]-
IONMODE: Negative
FORMULA: C38H73NO10
SMILES: O=C(NC(COC1OC(CO)C(O)C(O)C1O)C(O)C(O)CCCC=CCCCCCCCCC)C(O)CCCCCCCCCCCC
INCHIKEY: MJHPGALWMXALFF-UHFFFAOYSA-N
COMPOUNDCLASS: HexCer_AP
RETENTIONTIME: 
COMMENT: 
Num Peaks: 9
762.5373	10
702.516171	999
540.463348	100
522.452783	100
298.238768	700
268.228203	100
243.196568	200
197.191089	100
179.056112	200

NAME: HexCer 18:1;O3/20:4;2OH
PRECURSORMZ: 838.5686
PRECURSORTYPE: [M+CH3COO]-
IONMODE: Negative
FORMULA: C44H77NO10
SMILES: O=C(NC(COC1OC(CO)C(O)C(O)C1O)C(O)C(O)CCCC=CCCCCCCCCC)C(O)CCCCCC=CCC=CCC=CCC=CCC
INCHIKEY: MSAXANSZZPYBTP-UHFFFAOYSA-N
COMPOUNDCLASS: HexCer_AP
RETENTIONTIME: 
COMMENT: 
Num Peaks: 9
838.568601	10
778.547471	999
616.494648	100
598.484083	100
374.270068	700
344.259503	100
319.227868	200
273.222389	100
179.056112	200

NAME: HexCer 14:0;O3/18:1;2OH
PRECURSORMZ: 702.5162
PRECURSORTYPE: [M-H]-
IONMODE: Negative
FORMULA: C38H73NO10
SMILES: O=C(NC(COC1OC(CO)C(O)C(O)C1O)C(O)C(O)CCCCCCCCCC)C(O)CCCCCCC=CCCCCCCCC
INCHIKEY: VIUQJRGTNWFISP-UHFFFAOYSA-N
COMPOUNDCLASS: HexCer_AP
RETENTIONTIME: 
COMMENT: 
Num Peaks: 8
702.516171	999
540.463348	100
522.452783	100
352.285718	700
322.275153	100
297.243519	200
251.238039	100
179.056112	200

NAME: HexCer 14:0;O3/20:4;2OH
PRECURSORMZ: 724.5005
PRECURSORTYPE: [M-H]-
IONMODE: Negative
FORMULA: C40H71NO10
SMILES: O=C(NC(COC1OC(CO)C(O)C(O)C1O)C(O)C(O)CCCCCCCCCC)C(O)CCCCCC=CCC=CCC=CCC=CCC
INCHIKEY: BWRIAAONBCKSDK-UHFFFAOYSA-N
COMPOUNDCLASS: HexCer_AP
RETENTIONTIME: 
COMMENT: 
Num Peaks: 8
724.500521	999
562.447698	100
544.437133	100
374.270068	700
344.259503	100
319.227868	200
273.222389	100
179.056112	200

NAME: HexCer 18:1;O3/14:0;2OH
PRECURSORMZ: 702.5162
PRECURSORTYPE: [M-H]-
IONMODE: Negative
FORMULA: C38H73NO10
SMILES: O=C(NC(COC1OC(CO)C(O)C(O)C1O)C(O)C(O)CCCC=CCCCCCCCCC)C(O)CCCCCCCCCCCC
INCHIKEY: MJHPGALWMXALFF-UHFFFAOYSA-N
COMPOUNDCLASS: HexCer_AP
RETENTIONTIME: 
COMMENT: 
Num Peaks: 8
702.516171	999
540.463348	100
522.452783	100
298.238768	700
268.228203	100
243.196568	200
197.191089	100
179.056112	200

NAME: HexCer 18:1;O3/20:4;2OH
PRECURSORMZ: 778.5475
PRECURSORTYPE: [M-H]-
IONMODE: Negative
FORMULA: C44H77NO10
SMILES: O=C(NC(COC1OC(CO)C(O)C(O)C1O)C(O)C(O)CCCC=CCCCCCCCCC)C(O)CCCCCC=CCC=CCC=CCC=CCC
INCHIKEY: MSAXANSZZPYBTP-UHFFFAOYSA-N
COMPOUNDCLASS: HexCer_AP
RETENTIONTIME: 
COMMENT: 
Num Peaks: 8
778.547471	999
616.494648	100
598.484083	100
374.270068	700
344.259503	100
319.227868	200
273.222389	100
179.056112	200

NAME: HexCer 14:0;O3/18:1;2OH
PRECURSORMZ: 704.5307
PRECURSORTYPE: [M+H]+
IONMODE: Positive
FORMULA: C38H73NO10
SMILES: O=C(NC(COC1OC(CO)C(O)C(O)C1O)C(O)C(O)CCCCCCCCCC)C(O)CCCCCCC=CCCCCCCCC
INCHIKEY: VIUQJRGTNWFISP-UHFFFAOYSA-N
COMPOUNDCLASS: HexCer_AP
RETENTIONTIME: 
COMMENT: 
Num Peaks: 7
704.530724	50
542.477901	500
524.467336	999
506.456771	300
244.227106	200
226.216541	400
208.205976	200

NAME: HexCer 14:0;O3/20:4;2OH
PRECURSORMZ: 726.5151
PRECURSORTYPE: [M+H]+
IONMODE: Positive
FORMULA: C40H71NO10
SMILES: O=C(NC(COC1OC(CO)C(O)C(O)C1O)C(O)C(O)CCCCCCCCCC)C(O)CCCCCC=CCC=CCC=CCC=CCC
INCHIKEY: BWRIAAONBCKSDK-UHFFFAOYSA-N
COMPOUNDCLASS: HexCer_AP
RETENTIONTIME: 
COMMENT: 
Num Peaks: 7
726.515074	50
564.46225	500
546.451686	999
528.441121	300
244.227106	200
226.216541	400
208.205976	200

NAME: HexCer 18:1;O3/14:0;2OH
PRECURSORMZ: 704.5307
PRECURSORTYPE: [M+H]+
IONMODE: Positive
FORMULA: C38H73NO10
SMILES: O=C(NC(COC1OC(CO)C(O)C(O)C1O)C(O)C(O)CCCC=CCCCCCCCCC)C(O)CCCCCCCCCCCC
INCHIKEY: MJHPGALWMXALFF-UHFFFAOYSA-N
COMPOUNDCLASS: HexCer_AP
RETENTIONTIME: 
COMMENT: 
Num Peaks: 7
704.530724	50
542.477901	500
524.467336	999
506.456771	300
298.274056	200
280.263491	400
262.252926	200

NAME: HexCer 18:1;O3/20:4;2OH
PRECURSORMZ: 780.562
PRECURSORTYPE: [M+H]+
IONMODE: Positive
FORMULA: C44H77NO10
SMILES: O=C(NC(COC1OC(CO)C(O)C(O)C1O)C(O)C(O)CCCC=CCCCCCCCCC)C(O)CCCCCC=CCC=CCC=CCC=CCC
INCHIKEY: MSAXANSZZPYBTP-UHFFFAOYSA-N
COMPOUNDCLASS: HexCer_AP
RETENTIONTIME: 
COMMENT: 
Num Peaks: 7
780.562024	50
618.509201	500
600.498636	999
582.488071	300
298.274056	200
280.263491	400
262.252926	200

NAME: HexCer 14:0;O3/18:1;2OH
PRECURSORMZ: 726.5127
PRECURSORTYPE: [M+Na]+
IONMODE: Positive
FORMULA: C38H73NO10
SMILES: O=C(NC(COC1OC(CO)C(O)C(O)C1O)C(O)C(O)CCCCCCCCCC)C(O)CCCCCCC=CCCCCCCCC
INCHIKEY: VIUQJRGTNWFISP-UHFFFAOYSA-N
COMPOUNDCLASS: HexCer_AP
RETENTIONTIME: 
COMMENT: 
Num Peaks: 2
726.512668	999
226.216541	50

NAME: HexCer 14:0;O3/20:4;2OH
PRECURSORMZ: 748.497
PRECURSORTYPE: [M+Na]+
IONMODE: Positive
FORMULA: C40H71NO10
SMILES: O=C(NC(COC1OC(CO)C(O)C(O)C1O)C(O)C(O)CCCCCCCCCC)C(O)CCCCCC=CCC=CCC=CCC=CCC
INCHIKEY: BWRIAAONBCKSDK-UHFFFAOYSA-N
COMPOUNDCLASS: HexCer_AP
RETENTIONTIME: 
COMMENT: 
Num Peaks: 2
748.497018	999
226.216541	50

NAME: HexCer 18:1;O3/14:0;2OH
PRECURSORMZ: 726.5127
PRECURSORTYPE: [M+Na]+
IONMODE: Positive
FORMULA: C38H73NO10
SMILES: O=C(NC(COC1OC(CO)C(O)C(O)C1O)C(O)C(O)CCCC=CCCCCCCCCC)C(O)CCCCCCCCCCCC
INCHIKEY: MJHPGALWMXALFF-UHFFFAOYSA-N
COMPOUNDCLASS: HexCer_AP
RETENTIONTIME: 
COMMENT: 
Num Peaks: 2
726.512668	999
280.263491	50

NAME: HexCer 18:1;O3/20:4;2OH
PRECURSORMZ: 802.544
PRECURSORTYPE: [M+Na]+
IONMODE: Positive
FORMULA: C44H77NO10
SMILES: O=C(NC(COC1OC(CO)C(O)C(O)C1O)C(O)C(O)CCCC=CCCCCCCCCC)C(O)CCCCCC=CCC=CCC=CCC=CCC
INCHIKEY: MSAXANSZZPYBTP-UHFFFAOYSA-N
COMPOUNDCLASS: HexCer_AP
RETENTIONTIME: 
COMMENT: 
Num Peaks: 2
802.543968	999
280.263491	50

NAME: HexCer 14:0;O2/18:1;O
PRECURSORMZ: 732.5267
PRECURSORTYPE: [M+HCOO]-
IONMODE: Negative
FORMULA: C38H73NO9
SMILES: O=C(NC(COC1OC(CO)C(O)C(O)C1O)C(O)CCCCCCCCCCC)C(O)CCCCCCC=CCCCCCCCC
INCHIKEY: ZKSPLGMTIRASOS-UHFFFAOYSA-N
COMPOUNDCLASS: HexCer_HDS
RETENTIONTIME: 
COMMENT: 
Num Peaks: 6
732.526736	100
686.521256	999
524.468433	200
506.457868	100
322.275153	100
179.056112	100

NAME: HexCer 14:0;O2/20:4;O
PRECURSORMZ: 754.5111
PRECURSORTYPE: [M+HCOO]-
IONMODE: Negative
FORMULA: C40H71NO9
SMILES: O=C(NC(COC1OC(CO)C(O)C(O)C1O)C(O)CCCCCCCCCCC)C(O)CCCCCC=CCC=CCC=CCC=CCC
INCHIKEY: DRVGWPIAOQEUCE-UHFFFAOYSA-N
COMPOUNDCLASS: HexCer_HDS
RETENTIONTIME: 
COMMENT: 
Num Peaks: 6
754.511086	100
708.505606	999
546.452783	200
528.442218	100
344.259503	100
179.056112	100

NAME: HexCer 14:0;O2/18:1;O
PRECURSORMZ: 670.5252
PRECURSORTYPE: [M+H-H2O]+
IONMODE: Positive
FORMULA: C38H73NO9
SMILES: O=C(NC(COC1OC(CO)C(O)C(O)C1O)C(O)CCCCCCCCCCC)C(O)CCCCCCC=CCCCCCCCC
INCHIKEY: ZKSPLGMTIRASOS-UHFFFAOYSA-N
COMPOUNDCLASS: HexCer_HDS
RETENTIONTIME: 
COMMENT: 
Num Peaks: 7
670.525245	999
508.472421	700
490.461857	800
478.461857	400
228.232191	300
210.221626	700
198.221626	300

NAME: HexCer 14:0;O2/20:4;O
PRECURSORMZ: 692.5096
PRECURSORTYPE: [M+H-H2O]+
IONMODE: Positive
FORMULA: C40H71NO9
SMILES: O=C(NC(COC1OC(CO)C(O)C(O)C1O)C(O)CCCCCCCCCCC)C(O)CCCCCC=CCC=CCC=CCC=CCC
INCHIKEY: DRVGWPIAOQEUCE-UHFFFAOYSA-N
COMPOUNDCLASS: HexCer_HDS
RETENTIONTIME: 
COMMENT: 
Num Peaks: 7
692.509595	999
530.456771	700
512.446206	800
500.446206	400
228.232191	300
210.221626	700
198.221626	300

NAME: HexCer 14:0;O2/18:1;O
PRECURSORMZ: 746.5424
PRECURSORTYPE: [M+CH3COO]-
IONMODE: Negative
FORMULA: C38H73NO9
SMILES: O=C(NC(COC1OC(CO)C(O)C(O)C1O)C(O)CCCCCCCCCCC)C(O)CCCCCCC=CCCCCCCCC
INCHIKEY: ZKSPLGMTIRASOS-UHFFFAOYSA-N
COMPOUNDCLASS: HexCer_HDS
RETENTIONTIME: 
COMMENT: 
Num Peaks: 6
746.542386	100
686.521256	999
524.468433	200
506.457868	100
322.275153	100
179.056112	100

NAME: HexCer 14:0;O2/20:4;O
PRECURSORMZ: 768.5267
PRECURSORTYPE: [M+CH3COO]-
IONMODE: Negative
FORMULA: C40H71NO9
SMILES: O=C(NC(COC1OC(CO)C(O)C(O)C1O)C(O)CCCCCCCCCCC)C(O)CCCCCC=CCC=CCC=CCC=CCC
INCHIKEY: DRVGWPIAOQEUCE-UHFFFAOYSA-N
COMPOUNDCLASS: HexCer_HDS
RETENTIONTIME: 
COMMENT: 
Num Peaks: 6
768.526736	100
708.505606	999
546.452783	200
528.442218	100
344.259503	100
179.056112	100

NAME: HexCer 14:0;O2/18:1;O
PRECURSORMZ: 686.5213
PRECURSORTYPE: [M-H]-
IONMODE: Negative
FORMULA: C38H73NO9
SMILES: O=C(NC(COC1OC(CO)C(O)C(O)C1O)C(O)CCCCCCCCCCC)C(O)CCCCCCC=CCCCCCCCC
INCHIKEY: ZKSPLGMTIRASOS-UHFFFAOYSA-N
COMPOUNDCLASS: HexCer_HDS
RETENTIONTIME: 
COMMENT: 
Num Peaks: 5
686.521256	999
524.468433	200
506.457868	100
322.275153	100
179.056112	100

NAME: HexCer 14:0;O2/20:4;O
PRECURSORMZ: 708.5056
PRECURSORTYPE: [M-H]-
IONMODE: Negative
FORMULA: C40H71NO9
SMILES: O=C(NC(COC1OC(CO)C(O)C(O)C1O)C(O)CCCCCCCCCCC)C(O)CCCCCC=CCC=CCC=CCC=CCC
INCHIKEY: DRVGWPIAOQEUCE-UHFFFAOYSA-N
COMPOUNDCLASS: HexCer_HDS
RETENTIONTIME: 
COMMENT: 
Num Peaks: 5
708.505606	999
546.452783	200
528.442218	100
344.259503	100
179.056112	100

NAME: HexCer 14:0;O2/18:1;O
PRECURSORMZ: 688.5358
PRECURSORTYPE: [M+H]+
IONMODE: Positive
FORMULA: C38H73NO9
SMILES: O=C(NC(COC1OC(CO)C(O)C(O)C1O)C(O)CCCCCCCCCCC)C(O)CCCCCCC=CCCCCCCCC
INCHIKEY: ZKSPLGMTIRASOS-UHFFFAOYSA-N
COMPOUNDCLASS: HexCer_HDS
RETENTIONTIME: 
COMMENT: 
Num Peaks: 8
688.535809	50
670.525245	999
508.472421	700
490.461857	800
478.461857	400
228.232191	300
210.221626	700
198.221626	300

NAME: HexCer 14:0;O2/20:4;O
PRECURSORMZ: 710.5202
PRECURSORTYPE: [M+H]+
IONMODE: Positive
FORMULA: C40H71NO9
SMILES: O=C(NC(COC1OC(CO)C(O)C(O)C1O)C(O)CCCCCCCCCCC)C(O)CCCCCC=CCC=CCC=CCC=CCC
INCHIKEY: DRVGWPIAOQEUCE-UHFFFAOYSA-N
COMPOUNDCLASS: HexCer_HDS
RETENTIONTIME: 
COMMENT: 
Num Peaks: 8
710.520159	50
692.509595	999
530.456771	700
512.446206	800
500.446206	400
228.232191	300
210.221626	700
198.221626	300

NAME: HexCer 14:0;O2/18:1;O
PRECURSORMZ: 710.5178
PRECURSORTYPE: [M+Na]+
IONMODE: Positive
FORMULA: C38H73NO9
SMILES: O=C(NC(COC1OC(CO)C(O)C(O)C1O)C(O)CCCCCCCCCCC)C(O)CCCCCCC=CCCCCCCCC
INCHIKEY: ZKSPLGMTIRASOS-UHFFFAOYSA-N
COMPOUNDCLASS: HexCer_HDS
RETENTIONTIME: 
COMMENT: 
Num Peaks: 2
710.517754	999
210.221626	50

NAME: HexCer 14:0;O2/20:4;O
PRECURSORMZ: 732.5021
PRECURSORTYPE: [M+Na]+
IONMODE: Positive
FORMULA: C40H71NO9
SMILES: O=C(NC(COC1OC(CO)C(O)C(O)C1O)C(O)CCCCCCCCCCC)C(O)CCCCCC=CCC=CCC=CCC=CCC
INCHIKEY: DRVGWPIAOQEUCE-UHFFFAOYSA-N
COMPOUNDCLASS: HexCer_HDS
RETENTIONTIME: 
COMMENT: 
Num Peaks: 2
732.502104	999
210.221626	50

NAME: HexCer 18:1;O2/14:0;O
PRECURSORMZ: 732.5267
PRECURSORTYPE: [M+HCOO]-
IONMODE: Negative
FORMULA: C38H73NO9
SMILES: O=C(NC(COC1OC(CO)C(O)C(O)C1O)C(O)C=CCCCCCCCCCCCCC)C(O)CCCCCCCCCCCC
INCHIKEY: QOGWQRAFSQFWJZ-UHFFFAOYSA-N
COMPOUNDCLASS: HexCer_HS
RETENTIONTIME: 
COMMENT: 
Num Peaks: 6
732.526736	100
686.521256	999
524.468433	200
506.457868	100
268.228203	100
179.056112	100

NAME: HexCer 18:1;O2/20:4;O
PRECURSORMZ: 808.558
PRECURSORTYPE: [M+HCOO]-
IONMODE: Negative
FORMULA: C44H77NO9
SMILES: O=C(NC(COC1OC(CO)C(O)C(O)C1O)C(O)C=CCCCCCCCCCCCCC)C(O)CCCCCC=CCC=CCC=CCC=CCC
INCHIKEY: AYZXFVVZDLIPFC-UHFFFAOYSA-N
COMPOUNDCLASS: HexCer_HS
RETENTIONTIME: 
COMMENT: 
Num Peaks: 6
808.558036	100
762.552557	999
600.499733	200
582.489169	100
344.259503	100
179.056112	100

NAME: HexCer 18:1;O2/14:0;O
PRECURSORMZ: 670.5252
PRECURSORTYPE: [M+H-H2O]+
IONMODE: Positive
FORMULA: C38H73NO9
SMILES: O=C(NC(COC1OC(CO)C(O)C(O)C1O)C(O)C=CCCCCCCCCCCCCC)C(O)CCCCCCCCCCCC
INCHIKEY: QOGWQRAFSQFWJZ-UHFFFAOYSA-N
COMPOUNDCLASS: HexCer_HS
RETENTIONTIME: 
COMMENT: 
Num Peaks: 7
670.525245	999
508.472421	700
490.461857	800
478.461857	400
282.279141	300
264.268576	700
252.268576	300

NAME: HexCer 18:1;O2/20:4;O
PRECURSORMZ: 746.5565
PRECURSORTYPE: [M+H-H2O]+
IONMODE: Positive
FORMULA: C44H77NO9
SMILES: O=C(NC(COC1OC(CO)C(O)C(O)C1O)C(O)C=CCCCCCCCCCCCCC)C(O)CCCCCC=CCC=CCC=CCC=CCC
INCHIKEY: AYZXFVVZDLIPFC-UHFFFAOYSA-N
COMPOUNDCLASS: HexCer_HS
RETENTIONTIME: 
COMMENT: 
Num Peaks: 7
746.556545	999
584.503721	700
566.493157	800
554.493157	400
282.279141	300
264.268576	700
252.268576	300

NAME: HexCer 18:1;O2/14:0;O
PRECURSORMZ: 746.5424
PRECURSORTYPE: [M+CH3COO]-
IONMODE: Negative
FORMULA: C38H73NO9
SMILES: O=C(NC(COC1OC(CO)C(O)C(O)C1O)C(O)C=CCCCCCCCCCCCCC)C(O)CCCCCCCCCCCC
INCHIKEY: QOGWQRAFSQFWJZ-UHFFFAOYSA-N
COMPOUNDCLASS: HexCer_HS
RETENTIONTIME: 
COMMENT: 
Num Peaks: 6
746.542386	100
686.521256	999
524.468433	200
506.457868	100
268.228203	100
179.056112	100

NAME: HexCer 18:1;O2/20:4;O
PRECURSORMZ: 822.5737
PRECURSORTYPE: [M+CH3COO]-
IONMODE: Negative
FORMULA: C44H77NO9
SMILES: O=C(NC(COC1OC(CO)C(O)C(O)C1O)C(O)C=CCCCCCCCCCCCCC)C(O)CCCCCC=CCC=CCC=CCC=CCC
INCHIKEY: AYZXFVVZDLIPFC-UHFFFAOYSA-N
COMPOUNDCLASS: HexCer_HS
RETENTIONTIME: 
COMMENT: 
Num Peaks: 6
822.573686	100
762.552557	999
600.499733	200
582.489169	100
344.259503	100
179.056112	100

NAME: HexCer 18:1;O2/14:0;O
PRECURSORMZ: 686.5213
PRECURSORTYPE: [M-H]-
IONMODE: Negative
FORMULA: C38H73NO9
SMILES: O=C(NC(COC1OC(CO)C(O)C(O)C1O)C(O)C=CCCCCCCCCCCCCC)C(O)CCCCCCCCCCCC
INCHIKEY: QOGWQRAFSQFWJZ-UHFFFAOYSA-N
COMPOUNDCLASS: HexCer_HS
RETENTIONTIME: 
COMMENT: 
Num Peaks: 5
686.521256	999
524.468433	200
506.457868	100
268.228203	100
179.056112	100

NAME: HexCer 18:1;O2/20:4;O
PRECURSORMZ: 762.5526
PRECURSORTYPE: [M-H]-
IONMODE: Negative
FORMULA: C44H77NO9
SMILES: O=C(NC(COC1OC(CO)C(O)C(O)C1O)C(O)C=CCCCCCCCCCCCCC)C(O)CCCCCC=CCC=CCC=CCC=CCC
INCHIKEY: AYZXFVVZDLIPFC-UHFFFAOYSA-N
COMPOUNDCLASS: HexCer_HS
RETENTIONTIME: 
COMMENT: 
Num Peaks: 5
762.552557	999
600.499733	200
582.489169	100
344.259503	100
179.056112	100

NAME: HexCer 18:1;O2/14:0;O
PRECURSORMZ: 688.5358
PRECURSORTYPE: [M+H]+
IONMODE: Positive
FORMULA: C38H73NO9
SMILES: O=C(NC(COC1OC(CO)C(O)C(O)C1O)C(O)C=CCCCCCCCCCCCCC)C(O)CCCCCCCCCCCC
INCHIKEY: QOGWQRAFSQFWJZ-UHFFFAOYSA-N
COMPOUNDCLASS: HexCer_HS
RETENTIONTIME: 
COMMENT: 
Num Peaks: 8
688.535809	50
670.525245	999
508.472421	700
490.461857	800
478.461857	400
282.279141	300
264.268576	700
252.268576	300

NAME: HexCer 18:1;O2/20:4;O
PRECURSORMZ: 764.5671
PRECURSORTYPE: [M+H]+
IONMODE: Positive
FORMULA: C44H77NO9
SMILES: O=C(NC(COC1OC(CO)C(O)C(O)C1O)C(O)C=CCCCCCCCCCCCCC)C(O)CCCCCC=CCC=CCC=CCC=CCC
INCHIKEY: AYZXFVVZDLIPFC-UHFFFAOYSA-N
COMPOUNDCLASS: HexCer_HS
RETENTIONTIME: 
COMMENT: 
Num Peaks: 8
764.567109	50
746.556545	999
584.503721	700
566.493157	800
554.493157	400
282.279141	300
264.268576	700
252.268576	300

NAME: HexCer 18:1;O2/14:0;O
PRECURSORMZ: 710.5178
PRECURSORTYPE: [M+Na]+
IONMODE: Positive
FORMULA: C38H73NO9
SMILES: O=C(NC(COC1OC(CO)C(O)C(O)C1O)C(O)C=CCCCCCCCCCCCCC)C(O)CCCCCCCCCCCC
INCHIKEY: QOGWQRAFSQFWJZ-UHFFFAOYSA-N
COMPOUNDCLASS: HexCer_HS
RETENTIONTIME: 
COMMENT: 
Num Peaks: 2
710.517754	999
264.268576	50

NAME: HexCer 18:1;O2/20:4;O
PRECURSORMZ: 786.5491
PRECURSORTYPE: [M+Na]+
IONMODE: Positive
FORMULA: C44H77NO9
SMILES: O=C(NC(COC1OC(CO)C(O)C(O)C1O)C(O)C=CCCCCCCCCCCCCC)C(O)CCCCCC=CCC=CCC=CCC=CCC
INCHIKEY: AYZXFVVZDLIPFC-UHFFFAOYSA-N
COMPOUNDCLASS: HexCer_HS
RETENTIONTIME: 
COMMENT: 
Num Peaks: 2
786.549054	999
264.268576	50

NAME: HexCer 14:0;O2/18:1
PRECURSORMZ: 716.5318
PRECURSORTYPE: [M+HCOO]-
IONMODE: Negative
FORMULA: C38H73NO8
SMILES: O=C(NC(COC1OC(CO)C(O)C(O)C1O)C(O)CCCCCCCCCCC)CCCCCCCC=CCCCCCCCC
INCHIKEY: ZOHWDGPBGRTKIU-UHFFFAOYSA-N
COMPOUNDCLASS: HexCer_NDS
RETENTIONTIME: 
COMMENT: 
Num Peaks: 7
716.531821	10
670.526342	999
508.473518	500
306.280238	200
263.261849	200
183.175439	200
179.056112	200

NAME: HexCer 14:0;O2/20:4
PRECURSORMZ: 738.5162
PRECURSORTYPE: [M+HCOO]-
IONMODE: Negative
FORMULA: C40H71NO8
SMILES: O=C(NC(COC1OC(CO)C(O)C(O)C1O)C(O)CCCCCCCCCCC)CCCCCCC=CCC=CCC=CCC=CCC
INCHIKEY: LWOWDZYQWJXVTG-UHFFFAOYSA-N
COMPOUNDCLASS: HexCer_NDS
RETENTIONTIME: 
COMMENT: 
Num Peaks: 7
738.516171	10
692.510692	999
530.457868	500
328.264588	200
285.246199	200
183.175439	200
179.056112	200

NAME: HexCer 14:0;O2/18:1
PRECURSORMZ: 654.5303
PRECURSORTYPE: [M+H-H2O]+
IONMODE: Positive
FORMULA: C38H73NO8
SMILES: O=C(NC(COC1OC(CO)C(O)C(O)C1O)C(O)CCCCCCCCCCC)CCCCCCCC=CCCCCCCCC
INCHIKEY: ZOHWDGPBGRTKIU-UHFFFAOYSA-N
COMPOUNDCLASS: HexCer_NDS
RETENTIONTIME: 
COMMENT: 
Num Peaks: 8
654.53033	999
510.488071	50
492.477507	100
474.466942	100
282.279141	100
228.232191	200
210.221626	999
198.221626	200

NAME: HexCer 14:0;O2/20:4
PRECURSORMZ: 676.5147
PRECURSORTYPE: [M+H-H2O]+
IONMODE: Positive
FORMULA: C40H71NO8
SMILES: O=C(NC(COC1OC(CO)C(O)C(O)C1O)C(O)CCCCCCCCCCC)CCCCCCC=CCC=CCC=CCC=CCC
INCHIKEY: LWOWDZYQWJXVTG-UHFFFAOYSA-N
COMPOUNDCLASS: HexCer_NDS
RETENTIONTIME: 
COMMENT: 
Num Peaks: 8
676.51468	999
532.472421	50
514.461857	100
496.451292	100
304.263491	100
228.232191	200
210.221626	999
198.221626	200

NAME: HexCer 14:0;O2/18:1
PRECURSORMZ: 730.5475
PRECURSORTYPE: [M+CH3COO]-
IONMODE: Negative
FORMULA: C38H73NO8
SMILES: O=C(NC(COC1OC(CO)C(O)C(O)C1O)C(O)CCCCCCCCCCC)CCCCCCCC=CCCCCCCCC
INCHIKEY: ZOHWDGPBGRTKIU-UHFFFAOYSA-N
COMPOUNDCLASS: HexCer_NDS
RETENTIONTIME: 
COMMENT: 
Num Peaks: 7
730.547471	10
670.526342	999
508.473518	500
306.280238	200
263.261849	200
183.175439	200
179.056112	200

NAME: HexCer 14:0;O2/20:4
PRECURSORMZ: 752.5318
PRECURSORTYPE: [M+CH3COO]-
IONMODE: Negative
FORMULA: C40H71NO8
SMILES: O=C(NC(COC1OC(CO)C(O)C(O)C1O)C(O)CCCCCCCCCCC)CCCCCCC=CCC=CCC=CCC=CCC
INCHIKEY: LWOWDZYQWJXVTG-UHFFFAOYSA-N
COMPOUNDCLASS: HexCer_NDS
RETENTIONTIME: 
COMMENT: 
Num Peaks: 7
752.531821	10
692.510692	999
530.457868	500
328.264588	200
285.246199	200
183.175439	200
179.056112	200

NAME: HexCer 14:0;O2/18:1
PRECURSORMZ: 670.5263
PRECURSORTYPE: [M-H]-
IONMODE: Negative
FORMULA: C38H73NO8
SMILES: O=C(NC(COC1OC(CO)C(O)C(O)C1O)C(O)CCCCCCCCCCC)CCCCCCCC=CCCCCCCCC
INCHIKEY: ZOHWDGPBGRTKIU-UHFFFAOYSA-N
COMPOUNDCLASS: HexCer_NDS
RETENTIONTIME: 
COMMENT: 
Num Peaks: 6
670.526342	999
508.473518	500
306.280238	200
263.261849	200
183.175439	200
179.056112	200

NAME: HexCer 14:0;O2/20:4
PRECURSORMZ: 692.5107
PRECURSORTYPE: [M-H]-
IONMODE: Negative
FORMULA: C40H71NO8
SMILES: O=C(NC(COC1OC(CO)C(O)C(O)C1O)C(O)CCCCCCCCCCC)CCCCCCC=CCC=CCC=CCC=CCC
INCHIKEY: LWOWDZYQWJXVTG-UHFFFAOYSA-N
COMPOUNDCLASS: HexCer_NDS
RETENTIONTIME: 
COMMENT: 
Num Peaks: 6
692.510692	999
530.457868	500
328.264588	200
285.246199	200
183.175439	200
179.056112	200

NAME: HexCer 14:0;O2/18:1
PRECURSORMZ: 672.5409
PRECURSORTYPE: [M+H]+
IONMODE: Positive
FORMULA: C38H73NO8
SMILES: O=C(NC(COC1OC(CO)C(O)C(O)C1O)C(O)CCCCCCCCCCC)CCCCCCCC=CCCCCCCCC
INCHIKEY: ZOHWDGPBGRTKIU-UHFFFAOYSA-N
COMPOUNDCLASS: HexCer_NDS
RETENTIONTIME: 
COMMENT: 
Num Peaks: 9
672.540895	50
654.53033	400
510.488071	50
492.477507	100
474.466942	100
282.279141	100
228.232191	200
210.221626	999
198.221626	200

NAME: HexCer 14:0;O2/20:4
PRECURSORMZ: 694.5252
PRECURSORTYPE: [M+H]+
IONMODE: Positive
FORMULA: C40H71NO8
SMILES: O=C(NC(COC1OC(CO)C(O)C(O)C1O)C(O)CCCCCCCCCCC)CCCCCCC=CCC=CCC=CCC=CCC
INCHIKEY: LWOWDZYQWJXVTG-UHFFFAOYSA-N
COMPOUNDCLASS: HexCer_NDS
RETENTIONTIME: 
COMMENT: 
Num Peaks: 9
694.525245	50
676.51468	400
532.472421	50
514.461857	100
496.451292	100
304.263491	100
228.232191	200
210.221626	999
198.221626	200

NAME: HexCer 14:0;O2/18:1
PRECURSORMZ: 694.5228
PRECURSORTYPE: [M+Na]+
IONMODE: Positive
FORMULA: C38H73NO8
SMILES: O=C(NC(COC1OC(CO)C(O)C(O)C1O)C(O)CCCCCCCCCCC)CCCCCCCC=CCCCCCCCC
INCHIKEY: ZOHWDGPBGRTKIU-UHFFFAOYSA-N
COMPOUNDCLASS: HexCer_NDS
RETENTIONTIME: 
COMMENT: 
Num Peaks: 2
694.522839	999
210.221626	50

NAME: HexCer 14:0;O2/20:4
PRECURSORMZ: 716.5072
PRECURSORTYPE: [M+Na]+
IONMODE: Positive
FORMULA: C40H71NO8
SMILES: O=C(NC(COC1OC(CO)C(O)C(O)C1O)C(O)CCCCCCCCCCC)CCCCCCC=CCC=CCC=CCC=CCC
INCHIKEY: LWOWDZYQWJXVTG-UHFFFAOYSA-N
COMPOUNDCLASS: HexCer_NDS
RETENTIONTIME: 
COMMENT: 
Num Peaks: 2
716.507189	999
210.221626	50

NAME: HexCer 18:1;O2/14:0
PRECURSORMZ: 716.5318
PRECURSORTYPE: [M+HCOO]-
IONMODE: Negative
FORMULA: C38H73NO8
SMILES: O=C(NC(COC1OC(CO)C(O)C(O)C1O)C(O)C=CCCCCCCCCCCCCC)CCCCCCCCCCCCC
INCHIKEY: BDGGMKFFYWPIFU-UHFFFAOYSA-N
COMPOUNDCLASS: HexCer_NS
RETENTIONTIME: 
COMMENT: 
Num Peaks: 7
716.531821	10
670.526342	999
508.473518	500
252.233288	200
237.222389	200
209.214898	200
179.056112	200

NAME: HexCer 18:1;O2/20:4
PRECURSORMZ: 792.5631
PRECURSORTYPE: [M+HCOO]-
IONMODE: Negative
FORMULA: C44H77NO8
SMILES: O=C(NC(COC1OC(CO)C(O)C(O)C1O)C(O)C=CCCCCCCCCCCCCC)CCCCCCC=CCC=CCC=CCC=CCC
INCHIKEY: ACJNGAWSCUIBHE-UHFFFAOYSA-N
COMPOUNDCLASS: HexCer_NS
RETENTIONTIME: 
COMMENT: 
Num Peaks: 7
792.563121	10
746.557642	999
584.504819	500
328.264588	200
285.246199	200
237.222389	200
179.056112	200

NAME: HexCer 18:1;O2/14:0
PRECURSORMZ: 654.5303
PRECURSORTYPE: [M+H-H2O]+
IONMODE: Positive
FORMULA: C38H73NO8
SMILES: O=C(NC(COC1OC(CO)C(O)C(O)C1O)C(O)C=CCCCCCCCCCCCCC)CCCCCCCCCCCCC
INCHIKEY: BDGGMKFFYWPIFU-UHFFFAOYSA-N
COMPOUNDCLASS: HexCer_NS
RETENTIONTIME: 
COMMENT: 
Num Peaks: 8
654.53033	999
510.488071	50
492.477507	100
474.466942	100
282.279141	200
264.268576	999
252.268576	200
228.232191	100

NAME: HexCer 18:1;O2/20:4
PRECURSORMZ: 730.5616
PRECURSORTYPE: [M+H-H2O]+
IONMODE: Positive
FORMULA: C44H77NO8
SMILES: O=C(NC(COC1OC(CO)C(O)C(O)C1O)C(O)C=CCCCCCCCCCCCCC)CCCCCCC=CCC=CCC=CCC=CCC
INCHIKEY: ACJNGAWSCUIBHE-UHFFFAOYSA-N
COMPOUNDCLASS: HexCer_NS
RETENTIONTIME: 
COMMENT: 
Num Peaks: 8
730.56163	999
586.519371	50
568.508807	100
550.498242	100
304.263491	100
282.279141	200
264.268576	999
252.268576	200

NAME: HexCer 18:1;O2/14:0
PRECURSORMZ: 730.5475
PRECURSORTYPE: [M+CH3COO]-
IONMODE: Negative
FORMULA: C38H73NO8
SMILES: O=C(NC(COC1OC(CO)C(O)C(O)C1O)C(O)C=CCCCCCCCCCCCCC)CCCCCCCCCCCCC
INCHIKEY: BDGGMKFFYWPIFU-UHFFFAOYSA-N
COMPOUNDCLASS: HexCer_NS
RETENTIONTIME: 
COMMENT: 
Num Peaks: 7
730.547471	10
670.526342	999
508.473518	500
252.233288	200
237.222389	200
209.214898	200
179.056112	200

NAME: HexCer 18:1;O2/20:4
PRECURSORMZ: 806.5788
PRECURSORTYPE: [M+CH3COO]-
IONMODE: Negative
FORMULA: C44H77NO8
SMILES: O=C(NC(COC1OC(CO)C(O)C(O)C1O)C(O)C=CCCCCCCCCCCCCC)CCCCCCC=CCC=CCC=CCC=CCC
INCHIKEY: ACJNGAWSCUIBHE-UHFFFAOYSA-N
COMPOUNDCLASS: HexCer_NS
RETENTIONTIME: 
COMMENT: 
Num Peaks: 7
806.578771	10
746.557642	999
584.504819	500
328.264588	200
285.246199	200
237.222389	200
179.056112	200

NAME: HexCer 18:1;O2/14:0
PRECURSORMZ: 670.5263
PRECURSORTYPE: [M-H]-
IONMODE: Negative
FORMULA: C38H73NO8
SMILES: O=C(NC(COC1OC(CO)C(O)C(O)C1O)C(O)C=CCCCCCCCCCCCCC)CCCCCCCCCCCCC
INCHIKEY: BDGGMKFFYWPIFU-UHFFFAOYSA-N
COMPOUNDCLASS: HexCer_NS
RETENTIONTIME: 
COMMENT: 
Num Peaks: 6
670.526342	999
508.473518	500
252.233288	200
237.222389	200
209.214898	200
179.056112	200

NAME: HexCer 18:1;O2/20:4
PRECURSORMZ: 746.5576
PRECURSORTYPE: [M-H]-
IONMODE: Negative
FORMULA: C44H77NO8
SMILES: O=C(NC(COC1OC(CO)C(O)C(O)C1O)C(O)C=CCCCCCCCCCCCCC)CCCCCCC=CCC=CCC=CCC=CCC
INCHIKEY: ACJNGAWSCUIBHE-UHFFFAOYSA-N
COMPOUNDCLASS: HexCer_NS
RETENTIONTIME: 
COMMENT: 
Num Peaks: 6
746.557642	999
584.504819	500
328.264588	200
285.246199	200
237.222389	200
179.056112	200

NAME: HexCer 18:1;O2/14:0
PRECURSORMZ: 672.5409
PRECURSORTYPE: [M+H]+
IONMODE: Positive
FORMULA: C38H73NO8
SMILES: O=C(NC(COC1OC(CO)C(O)C(O)C1O)C(O)C=CCCCCCCCCCCCCC)CCCCCCCCCCCCC
INCHIKEY: BDGGMKFFYWPIFU-UHFFFAOYSA-N
COMPOUNDCLASS: HexCer_NS
RETENTIONTIME: 
COMMENT: 
Num Peaks: 9
672.540895	50
654.53033	400
510.488071	50
492.477507	100
474.466942	100
282.279141	200
264.268576	999
252.268576	200
228.232191	100

NAME: HexCer 18:1;O2/20:4
PRECURSORMZ: 748.5722
PRECURSORTYPE: [M+H]+
IONMODE: Positive
FORMULA: C44H77NO8
SMILES: O=C(NC(COC1OC(CO)C(O)C(O)C1O)C(O)C=CCCCCCCCCCCCCC)CCCCCCC=CCC=CCC=CCC=CCC
INCHIKEY: ACJNGAWSCUIBHE-UHFFFAOYSA-N
COMPOUNDCLASS: HexCer_NS
RETENTIONTIME: 
COMMENT: 
Num Peaks: 9
748.572195	50
730.56163	400
586.519371	50
568.508807	100
550.498242	100
304.263491	100
282.279141	200
264.268576	999
252.268576	200

NAME: HexCer 18:1;O2/14:0
PRECURSORMZ: 694.5228
PRECURSORTYPE: [M+Na]+
IONMODE: Positive
FORMULA: C38H73NO8
SMILES: O=C(NC(COC1OC(CO)C(O)C(O)C1O)C(O)C=CCCCCCCCCCCCCC)CCCCCCCCCCCCC
INCHIKEY: BDGGMKFFYWPIFU-UHFFFAOYSA-N
COMPOUNDCLASS: HexCer_NS
RETENTIONTIME: 
COMMENT: 
Num Peaks: 2
694.522839	999
264.268576	50

NAME: HexCer 18:1;O2/20:4
PRECURSORMZ: 770.5541
PRECURSORTYPE: [M+Na]+
IONMODE: Positive
FORMULA: C44H77NO8
SMILES: O=C(NC(COC1OC(CO)C(O)C(O)C1O)C(O)C=CCCCCCCCCCCCCC)CCCCCCC=CCC=CCC=CCC=CCC
INCHIKEY: ACJNGAWSCUIBHE-UHFFFAOYSA-N
COMPOUNDCLASS: HexCer_NS
RETENTIONTIME: 
COMMENT: 
Num Peaks: 2
770.554139	999
264.268576	50

NAME: SM 14:0;O2/18:1
PRECURSORMZ: 719.5345
PRECURSORTYPE: [M+HCOO]-
IONMODE: Negative
FORMULA: C37H75N2O6P
SMILES: O=C(NC(COP(=O)([O-])OCC[N+](C)(C)C)C(O)CCCCCCCCCCC)CCCCCCCC=CCCCCCCCC
INCHIKEY: QAYQKAURCXIWFW-UHFFFAOYSA-N
COMPOUNDCLASS: SM
RETENTIONTIME: 
COMMENT: 
Num Peaks: 5
719.534478	100
659.513348	999
395.268033	10
168.043118	200
78.959054	50

NAME: SM 14:0;O2/20:4
PRECURSORMZ: 741.5188
PRECURSORTYPE: [M+HCOO]-
IONMODE: Negative
FORMULA: C39H73N2O6P
SMILES: O=C(NC(COP(=O)([O-])OCC[N+](C)(C)C)C(O)CCCCCCCCCCC)CCCCCCC=CCC=CCC=CCC=CCC
INCHIKEY: UNWPDDDERBPSDL-UHFFFAOYSA-N
COMPOUNDCLASS: SM
RETENTIONTIME: 
COMMENT: 
Num Peaks: 5
741.518828	100
681.497698	999
395.268033	10
168.043118	200
78.959054	50

NAME: SM 18:1;O2/14:0
PRECURSORMZ: 719.5345
PRECURSORTYPE: [M+HCOO]-
IONMODE: Negative
FORMULA: C37H75N2O6P
SMILES: O=C(NC(COP(=O)([O-])OCC[N+](C)(C)C)C(O)C=CCCCCCCCCCCCCC)CCCCCCCCCCCCC
INCHIKEY: KYICBZWZQPCUMO-UHFFFAOYSA-N
COMPOUNDCLASS: SM
RETENTIONTIME: 
COMMENT: 
Num Peaks: 5
719.534478	100
659.513348	999
449.314983	10
168.043118	200
78.959054	50

NAME: SM 18:1;O2/20:4
PRECURSORMZ: 795.5658
PRECURSORTYPE: [M+HCOO]-
IONMODE: Negative
FORMULA: C43H79N2O6P
SMILES: O=C(NC(COP(=O)([O-])OCC[N+](C)(C)C)C(O)C=CCCCCCCCCCCCCC)CCCCCCC=CCC=CCC=CCC=CCC
INCHIKEY: SNVZBJBLBAYUCY-UHFFFAOYSA-N
COMPOUNDCLASS: SM
RETENTIONTIME: 
COMMENT: 
Num Peaks: 5
795.565778	100
735.544648	999
449.314983	10
168.043118	200
78.959054	50

NAME: SM 14:0;O2/18:1
PRECURSORMZ: 733.5501
PRECURSORTYPE: [M+CH3COO]-
IONMODE: Negative
FORMULA: C37H75N2O6P
SMILES: O=C(NC(COP(=O)([O-])OCC[N+](C)(C)C)C(O)CCCCCCCCCCC)CCCCCCCC=CCCCCCCCC
INCHIKEY: QAYQKAURCXIWFW-UHFFFAOYSA-N
COMPOUNDCLASS: SM
RETENTIONTIME: 
COMMENT: 
Num Peaks: 5
733.550128	100
659.513348	999
395.268033	10
168.043118	200
78.959054	50

NAME: SM 14:0;O2/20:4
PRECURSORMZ: 755.5345
PRECURSORTYPE: [M+CH3COO]-
IONMODE: Negative
FORMULA: C39H73N2O6P
SMILES: O=C(NC(COP(=O)([O-])OCC[N+](C)(C)C)C(O)CCCCCCCCCCC)CCCCCCC=CCC=CCC=CCC=CCC
INCHIKEY: UNWPDDDERBPSDL-UHFFFAOYSA-N
COMPOUNDCLASS: SM
RETENTIONTIME: 
COMMENT: 
Num Peaks: 5
755.534478	100
681.497698	999
395.268033	10
168.043118	200
78.959054	50

NAME: SM 18:1;O2/14:0
PRECURSORMZ: 733.5501
PRECURSORTYPE: [M+CH3COO]-
IONMODE: Negative
FORMULA: C37H75N2O6P
SMILES: O=C(NC(COP(=O)([O-])OCC[N+](C)(C)C)C(O)C=CCCCCCCCCCCCCC)CCCCCCCCCCCCC
INCHIKEY: KYICBZWZQPCUMO-UHFFFAOYSA-N
COMPOUNDCLASS: SM
RETENTIONTIME: 
COMMENT: 
Num Peaks: 5
733.550128	100
659.513348	999
449.314983	10
168.043118	200
78.959054	50

NAME: SM 18:1;O2/20:4
PRECURSORMZ: 809.5814
PRECURSORTYPE: [M+CH3COO]-
IONMODE: Negative
FORMULA: C43H79N2O6P
SMILES: O=C(NC(COP(=O)([O-])OCC[N+](C)(C)C)C(O)C=CCCCCCCCCCCCCC)CCCCCCC=CCC=CCC=CCC=CCC
INCHIKEY: SNVZBJBLBAYUCY-UHFFFAOYSA-N
COMPOUNDCLASS: SM
RETENTIONTIME: 
COMMENT: 
Num Peaks: 5
809.581428	100
735.544648	999
449.314983	10
168.043118	200
78.959054	50

NAME: SM 14:0;O2/18:1
PRECURSORMZ: 735.5294
PRECURSORTYPE: [M+HCO3]-
IONMODE: Negative
FORMULA: C37H75N2O6P
SMILES: O=C(NC(COP(=O)([O-])OCC[N+](C)(C)C)C(O)CCCCCCCCCCC)CCCCCCCC=CCCCCCCCC
INCHIKEY: QAYQKAURCXIWFW-UHFFFAOYSA-N
COMPOUNDCLASS: SM
RETENTIONTIME: 
COMMENT: 
Num Peaks: 6
735.529392	50
673.528998	150
614.455499	600
588.439849	999
430.272784	300
182.058768	200

NAME: SM 14:0;O2/20:4
PRECURSORMZ: 757.5137
PRECURSORTYPE: [M+HCO3]-
IONMODE: Negative
FORMULA: C39H73N2O6P
SMILES: O=C(NC(COP(=O)([O-])OCC[N+](C)(C)C)C(O)CCCCCCCCCCC)CCCCCCC=CCC=CCC=CCC=CCC
INCHIKEY: UNWPDDDERBPSDL-UHFFFAOYSA-N
COMPOUNDCLASS: SM
RETENTIONTIME: 
COMMENT: 
Num Peaks: 6
757.513742	50
695.513348	150
636.439849	600
610.424199	999
452.257134	300
182.058768	200

NAME: SM 18:1;O2/14:0
PRECURSORMZ: 735.5294
PRECURSORTYPE: [M+HCO3]-
IONMODE: Negative
FORMULA: C37H75N2O6P
SMILES: O=C(NC(COP(=O)([O-])OCC[N+](C)(C)C)C(O)C=CCCCCCCCCCCCCC)CCCCCCCCCCCCC
INCHIKEY: KYICBZWZQPCUMO-UHFFFAOYSA-N
COMPOUNDCLASS: SM
RETENTIONTIME: 
COMMENT: 
Num Peaks: 6
735.529392	50
673.528998	150
614.455499	600
588.439849	999
376.225833	300
182.058768	200

NAME: SM 18:1;O2/20:4
PRECURSORMZ: 811.5607
PRECURSORTYPE: [M+HCO3]-
IONMODE: Negative
FORMULA: C43H79N2O6P
SMILES: O=C(NC(COP(=O)([O-])OCC[N+](C)(C)C)C(O)C=CCCCCCCCCCCCCC)CCCCCCC=CCC=CCC=CCC=CCC
INCHIKEY: SNVZBJBLBAYUCY-UHFFFAOYSA-N
COMPOUNDCLASS: SM
RETENTIONTIME: 
COMMENT: 
Num Peaks: 6
811.560692	50
749.560298	150
690.486799	600
664.471149	999
452.257134	300
182.058768	200

NAME: SM 14:0;O2/18:1
PRECURSORMZ: 675.5436
PRECURSORTYPE: [M+H]+
IONMODE: Positive
FORMULA: C37H75N2O6P
SMILES: O=C(NC(COP(=O)([O-])OCC[N+](C)(C)C)C(O)CCCCCCCCCCC)CCCCCCCC=CCCCCCCCC
INCHIKEY: QAYQKAURCXIWFW-UHFFFAOYSA-N
COMPOUNDCLASS: SM
RETENTIONTIME: 
COMMENT: 
Num Peaks: 4
675.543551	200
657.532986	10
210.221626	5
184.073321	999

NAME: SM 14:0;O2/20:4
PRECURSORMZ: 697.5279
PRECURSORTYPE: [M+H]+
IONMODE: Positive
FORMULA: C39H73N2O6P
SMILES: O=C(NC(COP(=O)([O-])OCC[N+](C)(C)C)C(O)CCCCCCCCCCC)CCCCCCC=CCC=CCC=CCC=CCC
INCHIKEY: UNWPDDDERBPSDL-UHFFFAOYSA-N
COMPOUNDCLASS: SM
RETENTIONTIME: 
COMMENT: 
Num Peaks: 4
697.527901	200
679.517336	10
210.221626	5
184.073321	999

NAME: SM 18:1;O2/14:0
PRECURSORMZ: 675.5436
PRECURSORTYPE: [M+H]+
IONMODE: Positive
FORMULA: C37H75N2O6P
SMILES: O=C(NC(COP(=O)([O-])OCC[N+](C)(C)C)C(O)C=CCCCCCCCCCCCCC)CCCCCCCCCCCCC
INCHIKEY: KYICBZWZQPCUMO-UHFFFAOYSA-N
COMPOUNDCLASS: SM
RETENTIONTIME: 
COMMENT: 
Num Peaks: 4
675.543551	200
657.532986	10
264.268576	5
184.073321	999

NAME: SM 18:1;O2/20:4
PRECURSORMZ: 751.5749
PRECURSORTYPE: [M+H]+
IONMODE: Positive
FORMULA: C43H79N2O6P
SMILES: O=C(NC(COP(=O)([O-])OCC[N+](C)(C)C)C(O)C=CCCCCCCCCCCCCC)CCCCCCC=CCC=CCC=CCC=CCC
INCHIKEY: SNVZBJBLBAYUCY-UHFFFAOYSA-N
COMPOUNDCLASS: SM
RETENTIONTIME: 
COMMENT: 
Num Peaks: 4
751.574851	200
733.564287	10
264.268576	5
184.073321	999

NAME: SM 28:0;O2
PRECURSORMZ: 643.4785
PRECURSORTYPE: [M+Na]+
IONMODE: Positive
FORMULA: C33H69N2O6P
SMILES: O=C(NC(COP(=O)([O-])OCC[N+](C)(C)C)C(O)CCCCCCCCCCC)CCCCCCCCCCCCC
INCHIKEY: OASVYBHTWRJVOS-UHFFFAOYSA-N
COMPOUNDCLASS: SM
RETENTIONTIME: 
COMMENT: 
Num Peaks: 4
643.478545	999
584.405046	800
460.412501	999
420.419992	200

NAME: SM 32:1;O2
PRECURSORMZ: 697.5255
PRECURSORTYPE: [M+Na]+
IONMODE: Positive
FORMULA: C37H75N2O6P
SMILES: O=C(NC(COP(=O)([O-])OCC[N+](C)(C)C)C(O)CCCCCCCCCCC)CCCCCCCC=CCCCCCCCC
INCHIKEY: QAYQKAURCXIWFW-UHFFFAOYSA-N
COMPOUNDCLASS: SM
RETENTIONTIME: 
COMMENT: 
Num Peaks: 4
697.525495	999
638.451996	800
514.459451	999
474.466942	200

NAME: SM 34:4;O2
PRECURSORMZ: 719.5098
PRECURSORTYPE: [M+Na]+
IONMODE: Positive
FORMULA: C39H73N2O6P
SMILES: O=C(NC(COP(=O)([O-])OCC[N+](C)(C)C)C(O)CCCCCCCCCCC)CCCCCCC=CCC=CCC=CCC=CCC
INCHIKEY: UNWPDDDERBPSDL-UHFFFAOYSA-N
COMPOUNDCLASS: SM
RETENTIONTIME: 
COMMENT: 
Num Peaks: 4
719.509845	999
660.436346	800
536.443801	999
496.451292	200

NAME: SM 36:2;O2
PRECURSORMZ: 751.5724
PRECURSORTYPE: [M+Na]+
IONMODE: Positive
FORMULA: C41H81N2O6P
SMILES: O=C(NC(COP(=O)([O-])OCC[N+](C)(C)C)C(O)C=CCCCCCCCCCCCCC)CCCCCCCC=CCCCCCCCC
INCHIKEY: NBEADXWAAWCCDG-UHFFFAOYSA-N
COMPOUNDCLASS: SM
RETENTIONTIME: 
COMMENT: 
Num Peaks: 4
751.572446	999
692.498946	800
568.506401	999
528.513892	200

NAME: SM 38:5;O2
PRECURSORMZ: 773.5568
PRECURSORTYPE: [M+Na]+
IONMODE: Positive
FORMULA: C43H79N2O6P
SMILES: O=C(NC(COP(=O)([O-])OCC[N+](C)(C)C)C(O)C=CCCCCCCCCCCCCC)CCCCCCC=CCC=CCC=CCC=CCC
INCHIKEY: SNVZBJBLBAYUCY-UHFFFAOYSA-N
COMPOUNDCLASS: SM
RETENTIONTIME: 
COMMENT: 
Num Peaks: 4
773.556796	999
714.483296	800
590.490751	999
550.498242	200

