NAME: AAHFA 20:4/16:0;O
PRECURSORMZ: 557.4575
PRECURSORTYPE: [M-H]-
IONMODE: Negative
FORMULA: C36H62O4
SMILES: O=C(OC(C(=O)O)CCCCCCCCCCCCCC)CCCCCCC=CCC=CCC=CCC=CCC
INCHIKEY: CTYKEAIPCPWCGW-UHFFFAOYSA-N
COMPOUNDCLASS: FAHFA
RETENTIONTIME: 
COMMENT: 
Num Peaks: 5
557.457534	5
303.232954	500
271.227868	999
253.217304	800
225.222389	500

NAME: FA 18:1(2OH)
PRECURSORMZ: 297.2435
PRECURSORTYPE: [M-H]-
IONMODE: Negative
FORMULA: C18H34O3
SMILES: O=C(O)C(O)CCCCCCC=CCCCCCCCC
INCHIKEY: JBSOOFITVPOOSY-UHFFFAOYSA-N
COMPOUNDCLASS: OxFA
RETENTIONTIME: 
COMMENT: 
Num Peaks: 3
297.243519	500
279.232954	50
251.238039	999

NAME: DMEDFAHFA 16:0/20:4;O
PRECURSORMZ: 629.5616
PRECURSORTYPE: [M+H]+
IONMODE: Positive
FORMULA: C40H72N2O3
SMILES: O=C(OC(C=CCC=CCCCC(=O)NCCN(C)C)C=CCC=CCCCCC)CCCCCCCCCCCCCCC
INCHIKEY: XGZHKVZMUBPPDN-UHFFFAOYSA-N
COMPOUNDCLASS: DMEDFAHFA
RETENTIONTIME: 
COMMENT: 
Num Peaks: 4
629.561571	999
584.503721	50
373.32134	500
328.263491	999

NAME: DMEDFA 18:1
PRECURSORMZ: 353.3526
PRECURSORTYPE: [M+H]+
IONMODE: Positive
FORMULA: C22H44N2O
SMILES: O=C(NCCN(C)C)CCCCCCCC=CCCCCCCCC
INCHIKEY: XBAWSQDWPKWYFF-UHFFFAOYSA-N
COMPOUNDCLASS: DMEDFA
RETENTIONTIME: 
COMMENT: 
Num Peaks: 2
353.35264	999
308.294791	500

NAME: DMEDFA 18:1;O
PRECURSORMZ: 369.3476
PRECURSORTYPE: [M+H]+
IONMODE: Positive
FORMULA: C22H44N2O2
SMILES: O=C(NCCN(C)C)CCCCCCC(O)C=CCCCCCCCC
INCHIKEY: NUSYXOMNCXHXCN-UHFFFAOYSA-N
COMPOUNDCLASS: DMEDOxFA
RETENTIONTIME: 
COMMENT: 
Num Peaks: 3
369.347555	999
324.289706	500
306.279141	500

NAME: DMEDFA 18:1;O2
PRECURSORMZ: 385.3425
PRECURSORTYPE: [M+H]+
IONMODE: Positive
FORMULA: C22H44N2O3
SMILES: O=C(NCCN(C)C)CCCCCC(O)C=CC(O)CCCCCCCC
INCHIKEY: ZHQXWQDOWCHWIE-UHFFFAOYSA-N
COMPOUNDCLASS: DMEDOxFA
RETENTIONTIME: 
COMMENT: 
Num Peaks: 3
385.34247	999
340.28462	500
322.274056	500

NAME: DMEDFA 18:1;O3
PRECURSORMZ: 401.3374
PRECURSORTYPE: [M+H]+
IONMODE: Positive
FORMULA: C22H44N2O4
SMILES: O=C(NCCN(C)C)CCCC(O)CCC(O)C=CCC(O)CCCCCC
INCHIKEY: VOLJIHILERTVHY-UHFFFAOYSA-N
COMPOUNDCLASS: DMEDOxFA
RETENTIONTIME: 
COMMENT: 
Num Peaks: 3
401.337384	999
356.279535	500
338.26897	500

NAME: DMEDFA 18:1;O4
PRECURSORMZ: 417.3323
PRECURSORTYPE: [M+H]+
IONMODE: Positive
FORMULA: C22H44N2O5
SMILES: O=C(NCCN(C)C)CCCC(O)CCC(O)C=CCC(O)CCCCCCO
INCHIKEY: HTYQAXACDMNMAP-UHFFFAOYSA-N
COMPOUNDCLASS: DMEDOxFA
RETENTIONTIME: 
COMMENT: 
Num Peaks: 3
417.332299	999
372.27445	500
354.263885	500

NAME: FAHFA 20:4/16:0;O
PRECURSORMZ: 557.4575
PRECURSORTYPE: [M-H]-
IONMODE: Negative
FORMULA: C36H62O4
SMILES: O=C(O)CCCCCCC(OC(=O)CCCCCCC=CCC=CCC=CCC=CCC)CCCCCCCC
INCHIKEY: DTDMWDQEYJCLBR-UHFFFAOYSA-N
COMPOUNDCLASS: FAHFA
RETENTIONTIME: 
COMMENT: 
Num Peaks: 4
557.457534	50
303.232954	999
271.227868	150
253.217304	50

NAME: FA 18:1
PRECURSORMZ: 281.2486
PRECURSORTYPE: [M-H]-
IONMODE: Negative
FORMULA: C18H34O2
SMILES: O=C(O)CCCCCCCC=CCCCCCCCC
INCHIKEY: ZQPPMHVWECSIRJ-UHFFFAOYSA-N
COMPOUNDCLASS: FA
RETENTIONTIME: 
COMMENT: 
Num Peaks: 1
281.248604	999

NAME: NA5HT 18:1
PRECURSORMZ: 485.3385
PRECURSORTYPE: [M+HCOO]-
IONMODE: Negative
FORMULA: C28H44N2O2
SMILES: O=C(NCCC1=CNC=2C=CC(O)=CC21)CCCCCCCC=CCCCCCCCC
INCHIKEY: LCQKHZYXPCLVBI-UHFFFAOYSA-N
COMPOUNDCLASS: NA5HT
RETENTIONTIME: 
COMMENT: 
Num Peaks: 4
485.338482	5
439.333002	999
280.264588	100
158.061137	999

NAME: NA5HT 18:1
PRECURSORMZ: 499.3541
PRECURSORTYPE: [M+CH3COO]-
IONMODE: Negative
FORMULA: C28H44N2O2
SMILES: O=C(NCCC1=CNC=2C=CC(O)=CC21)CCCCCCCC=CCCCCCCCC
INCHIKEY: LCQKHZYXPCLVBI-UHFFFAOYSA-N
COMPOUNDCLASS: NA5HT
RETENTIONTIME: 
COMMENT: 
Num Peaks: 4
499.354132	5
439.333002	999
280.264588	100
158.061137	999

NAME: NA5HT 18:1
PRECURSORMZ: 439.333
PRECURSORTYPE: [M-H]-
IONMODE: Negative
FORMULA: C28H44N2O2
SMILES: O=C(NCCC1=CNC=2C=CC(O)=CC21)CCCCCCCC=CCCCCCCCC
INCHIKEY: LCQKHZYXPCLVBI-UHFFFAOYSA-N
COMPOUNDCLASS: NA5HT
RETENTIONTIME: 
COMMENT: 
Num Peaks: 3
439.333002	999
280.264588	100
158.061137	999

NAME: NA5HT 18:1
PRECURSORMZ: 441.3476
PRECURSORTYPE: [M+H]+
IONMODE: Positive
FORMULA: C28H44N2O2
SMILES: O=C(NCCC1=CNC=2C=CC(O)=CC21)CCCCCCCC=CCCCCCCCC
INCHIKEY: LCQKHZYXPCLVBI-UHFFFAOYSA-N
COMPOUNDCLASS: NA5HT
RETENTIONTIME: 
COMMENT: 
Num Peaks: 3
441.347555	200
177.102239	50
160.07569	999

NAME: NA5HT 18:1;O
PRECURSORMZ: 501.3334
PRECURSORTYPE: [M+HCOO]-
IONMODE: Negative
FORMULA: C28H44N2O3
SMILES: O=C(NCCC1=CNC=2C=CC(O)=CC21)CC(O)CCCCCC=CCCCCCCCC
INCHIKEY: NRBOMEBTRZKKMK-UHFFFAOYSA-N
COMPOUNDCLASS: NA5HT
RETENTIONTIME: 
COMMENT: 
Num Peaks: 4
501.333396	5
455.327917	999
278.248938	100
158.061137	999

NAME: NA5HT 18:1;O
PRECURSORMZ: 515.349
PRECURSORTYPE: [M+CH3COO]-
IONMODE: Negative
FORMULA: C28H44N2O3
SMILES: O=C(NCCC1=CNC=2C=CC(O)=CC21)CC(O)CCCCCC=CCCCCCCCC
INCHIKEY: NRBOMEBTRZKKMK-UHFFFAOYSA-N
COMPOUNDCLASS: NA5HT
RETENTIONTIME: 
COMMENT: 
Num Peaks: 4
515.349046	5
455.327917	999
278.248938	100
158.061137	999

NAME: NA5HT 18:1;O
PRECURSORMZ: 455.3279
PRECURSORTYPE: [M-H]-
IONMODE: Negative
FORMULA: C28H44N2O3
SMILES: O=C(NCCC1=CNC=2C=CC(O)=CC21)CC(O)CCCCCC=CCCCCCCCC
INCHIKEY: NRBOMEBTRZKKMK-UHFFFAOYSA-N
COMPOUNDCLASS: NA5HT
RETENTIONTIME: 
COMMENT: 
Num Peaks: 3
455.327917	999
278.248938	100
158.061137	999

NAME: NA5HT 18:1;O
PRECURSORMZ: 457.3425
PRECURSORTYPE: [M+H]+
IONMODE: Positive
FORMULA: C28H44N2O3
SMILES: O=C(NCCC1=CNC=2C=CC(O)=CC21)CC(O)CCCCCC=CCCCCCCCC
INCHIKEY: NRBOMEBTRZKKMK-UHFFFAOYSA-N
COMPOUNDCLASS: NA5HT
RETENTIONTIME: 
COMMENT: 
Num Peaks: 4
457.34247	200
439.331905	50
177.102239	50
160.07569	999

NAME: NAAla 18:1
PRECURSORMZ: 352.2857
PRECURSORTYPE: [M-H]-
IONMODE: Negative
FORMULA: C21H39NO3
SMILES: O=C(NC(C(=O)O)C)CCCCCCCC=CCCCCCCCC
INCHIKEY: CHQZBIVWDKADIA-UHFFFAOYSA-N
COMPOUNDCLASS: NAAla
RETENTIONTIME: 
COMMENT: 
Num Peaks: 3
352.285718	100
279.232954	50
88.040402	999

NAME: NAAla 18:1
PRECURSORMZ: 354.3003
PRECURSORTYPE: [M+H]+
IONMODE: Positive
FORMULA: C21H39NO3
SMILES: O=C(NC(C(=O)O)C)CCCCCCCC=CCCCCCCCC
INCHIKEY: CHQZBIVWDKADIA-UHFFFAOYSA-N
COMPOUNDCLASS: NAAla
RETENTIONTIME: 
COMMENT: 
Num Peaks: 3
354.300271	100
265.252592	50
90.054955	999

NAME: NAAla 18:1;O
PRECURSORMZ: 368.2806
PRECURSORTYPE: [M-H]-
IONMODE: Negative
FORMULA: C21H39NO4
SMILES: O=C(O)C(NC(=O)CC(O)CCCCCC=CCCCCCCCC)C
INCHIKEY: BMUAFOLNEUNPMX-UHFFFAOYSA-N
COMPOUNDCLASS: NAAla
RETENTIONTIME: 
COMMENT: 
Num Peaks: 3
368.280632	100
295.227868	50
88.040402	999

NAME: NAAla 18:1;O
PRECURSORMZ: 370.2952
PRECURSORTYPE: [M+H]+
IONMODE: Positive
FORMULA: C21H39NO4
SMILES: O=C(O)C(NC(=O)CC(O)CCCCCC=CCCCCCCCC)C
INCHIKEY: BMUAFOLNEUNPMX-UHFFFAOYSA-N
COMPOUNDCLASS: NAAla
RETENTIONTIME: 
COMMENT: 
Num Peaks: 4
370.295185	100
352.28462	100
281.247507	50
90.054955	999

NAME: NAGln 18:1
PRECURSORMZ: 409.3072
PRECURSORTYPE: [M-H]-
IONMODE: Negative
FORMULA: C23H42N2O4
SMILES: O=C(N)CCC(NC(=O)CCCCCCCC=CCCCCCCCC)C(=O)O
INCHIKEY: ZHVSXWCIYWYBQP-UHFFFAOYSA-N
COMPOUNDCLASS: NAGln
RETENTIONTIME: 
COMMENT: 
Num Peaks: 6
409.307181	800
347.306787	500
280.264588	500
145.061866	999
127.051301	800
101.072037	100

NAME: NAGln 18:1
PRECURSORMZ: 411.3217
PRECURSORTYPE: [M+H]+
IONMODE: Positive
FORMULA: C23H42N2O4
SMILES: O=C(N)CCC(NC(=O)CCCCCCCC=CCCCCCCCC)C(=O)O
INCHIKEY: ZHVSXWCIYWYBQP-UHFFFAOYSA-N
COMPOUNDCLASS: NAGln
RETENTIONTIME: 
COMMENT: 
Num Peaks: 5
411.321734	100
282.279141	50
147.076419	200
130.04987	999
84.04439	500

NAME: NAGln 18:1;O
PRECURSORMZ: 425.3021
PRECURSORTYPE: [M-H]-
IONMODE: Negative
FORMULA: C23H42N2O5
SMILES: O=C(N)CCC(NC(=O)CC(O)CCCCCC=CCCCCCCCC)C(=O)O
INCHIKEY: NQOSUHIJLXELQL-UHFFFAOYSA-N
COMPOUNDCLASS: NAGln
RETENTIONTIME: 
COMMENT: 
Num Peaks: 6
425.302096	800
363.301702	500
297.267328	500
145.061866	999
127.051301	800
101.072037	500

NAME: NAGln 18:1;O
PRECURSORMZ: 427.3166
PRECURSORTYPE: [M+H]+
IONMODE: Positive
FORMULA: C23H42N2O5
SMILES: O=C(N)CCC(NC(=O)CC(O)CCCCCC=CCCCCCCCC)C(=O)O
INCHIKEY: NQOSUHIJLXELQL-UHFFFAOYSA-N
COMPOUNDCLASS: NAGln
RETENTIONTIME: 
COMMENT: 
Num Peaks: 6
427.316649	100
409.306084	100
298.274056	50
147.076419	200
130.04987	999
84.04439	500

NAME: NAGlySer 16:0;O(FA 20:4)
PRECURSORMZ: 701.511
PRECURSORTYPE: [M-H]-
IONMODE: Negative
FORMULA: C41H70N2O7
SMILES: O=C(OC(CCCCCCC(=O)NCC(=O)NC(C(=O)O)CO)CCCCCCCC)CCCCCCC=CCC=CCC=CCC=CCC
INCHIKEY: TWHVMPBRIKOICZ-UHFFFAOYSA-N
COMPOUNDCLASS: NAGlySer
RETENTIONTIME: 
COMMENT: 
Num Peaks: 6
701.511026	700
683.500461	5
397.270796	400
367.260231	999
335.270402	400
303.232954	400

NAME: NAGlySer 16:0;O(FA 20:4)
PRECURSORMZ: 720.5521
PRECURSORTYPE: [M+NH4]+
IONMODE: Positive
FORMULA: C41H70N2O7
SMILES: O=C(OC(CCCCCCC(=O)NCC(=O)NC(C(=O)O)CO)CCCCCCCC)CCCCCCC=CCC=CCC=CCC=CCC
INCHIKEY: TWHVMPBRIKOICZ-UHFFFAOYSA-N
COMPOUNDCLASS: NAGlySer
RETENTIONTIME: 
COMMENT: 
Num Peaks: 9
720.552128	200
685.515014	200
399.285349	500
381.274784	500
294.242756	999
266.247841	400
237.221292	800
145.060769	300
106.04987	200

NAME: NAGlySer 18:1;O
PRECURSORMZ: 441.297
PRECURSORTYPE: [M-H]-
IONMODE: Negative
FORMULA: C23H42N2O6
SMILES: O=C(O)C(NC(=O)CNC(=O)CC(O)CCCCCC=CCCCCCCCC)CO
INCHIKEY: BCSPONOVBWGEGH-UHFFFAOYSA-N
COMPOUNDCLASS: NAGlySer
RETENTIONTIME: 
COMMENT: 
Num Peaks: 6
441.297011	999
173.05678	400
141.066951	400
99.056386	400
87.056386	400
74.024752	400

NAME: NAGlySer 18:1;O
PRECURSORMZ: 443.3116
PRECURSORTYPE: [M+H]+
IONMODE: Positive
FORMULA: C23H42N2O6
SMILES: O=C(O)C(NC(=O)CNC(=O)CC(O)CCCCCC=CCCCCCCCC)CO
INCHIKEY: BCSPONOVBWGEGH-UHFFFAOYSA-N
COMPOUNDCLASS: NAGlySer
RETENTIONTIME: 
COMMENT: 
Num Peaks: 3
443.311563	1
145.060769	999
106.04987	700

NAME: NAGly 16:0;O(FA 20:4)
PRECURSORMZ: 614.479
PRECURSORTYPE: [M-H]-
IONMODE: Negative
FORMULA: C38H65NO5
SMILES: O=C(O)CNC(=O)CCCCCCC(OC(=O)CCCCCCC=CCC=CCC=CCC=CCC)CCCCCCCC
INCHIKEY: YCPFOBRBMGQCNC-UHFFFAOYSA-N
COMPOUNDCLASS: NAGly
RETENTIONTIME: 
COMMENT: 
Num Peaks: 5
614.478998	50
310.238767	999
303.232954	150
266.248938	150
74.024752	150

NAME: NAGly 16:0;O(FA 20:4)
PRECURSORMZ: 616.4936
PRECURSORTYPE: [M+H]+
IONMODE: Positive
FORMULA: C38H65NO5
SMILES: O=C(O)CNC(=O)CCCCCCC(OC(=O)CCCCCCC=CCC=CCC=CCC=CCC)CCCCCCCC
INCHIKEY: YCPFOBRBMGQCNC-UHFFFAOYSA-N
COMPOUNDCLASS: NAGly
RETENTIONTIME: 
COMMENT: 
Num Peaks: 5
616.493551	1
312.25332	999
237.221292	500
219.210727	500
76.039305	750

NAME: NAGly 16:0;O(FA 20:4)
PRECURSORMZ: 633.5201
PRECURSORTYPE: [M+NH4]+
IONMODE: Positive
FORMULA: C38H65NO5
SMILES: O=C(O)CNC(=O)CCCCCCC(OC(=O)CCCCCCC=CCC=CCC=CCC=CCC)CCCCCCCC
INCHIKEY: YCPFOBRBMGQCNC-UHFFFAOYSA-N
COMPOUNDCLASS: NAGly
RETENTIONTIME: 
COMMENT: 
Num Peaks: 6
633.5201	300
616.493551	50
312.25332	999
237.221292	500
219.210727	500
76.039305	750

NAME: NAGly 18:1
PRECURSORMZ: 338.2701
PRECURSORTYPE: [M-H]-
IONMODE: Negative
FORMULA: C20H37NO3
SMILES: O=C(O)CNC(=O)CCCCCCCC=CCCCCCCCC
INCHIKEY: HPFXACZRFJDURI-UHFFFAOYSA-N
COMPOUNDCLASS: NAGly
RETENTIONTIME: 
COMMENT: 
Num Peaks: 2
338.270068	1
74.024752	999

NAME: NAGly 18:1
PRECURSORMZ: 340.2846
PRECURSORTYPE: [M+H]+
IONMODE: Positive
FORMULA: C20H37NO3
SMILES: O=C(O)CNC(=O)CCCCCCCC=CCCCCCCCC
INCHIKEY: HPFXACZRFJDURI-UHFFFAOYSA-N
COMPOUNDCLASS: NAGly
RETENTIONTIME: 
COMMENT: 
Num Peaks: 2
340.28462	1
76.039305	999

NAME: NAGly 18:1
PRECURSORMZ: 357.3112
PRECURSORTYPE: [M+NH4]+
IONMODE: Positive
FORMULA: C20H37NO3
SMILES: O=C(O)CNC(=O)CCCCCCCC=CCCCCCCCC
INCHIKEY: HPFXACZRFJDURI-UHFFFAOYSA-N
COMPOUNDCLASS: NAGly
RETENTIONTIME: 
COMMENT: 
Num Peaks: 3
357.31117	1
340.28462	1
76.039305	999

NAME: NAGly 18:1;O
PRECURSORMZ: 354.265
PRECURSORTYPE: [M-H]-
IONMODE: Negative
FORMULA: C20H37NO4
SMILES: O=C(O)CNC(=O)CC(O)CCCCCC=CCCCCCCCC
INCHIKEY: JHCGMEFDYVBBCF-UHFFFAOYSA-N
COMPOUNDCLASS: NAGly
RETENTIONTIME: 
COMMENT: 
Num Peaks: 2
354.264982	1
74.024752	999

NAME: NAGly 18:1;O
PRECURSORMZ: 356.2795
PRECURSORTYPE: [M+H]+
IONMODE: Positive
FORMULA: C20H37NO4
SMILES: O=C(O)CNC(=O)CC(O)CCCCCC=CCCCCCCCC
INCHIKEY: JHCGMEFDYVBBCF-UHFFFAOYSA-N
COMPOUNDCLASS: NAGly
RETENTIONTIME: 
COMMENT: 
Num Peaks: 2
356.279535	1
76.039305	999

NAME: NALeu 18:1
PRECURSORMZ: 394.3327
PRECURSORTYPE: [M-H]-
IONMODE: Negative
FORMULA: C24H45NO3
SMILES: O=C(NC(C(=O)O)CC(C)C)CCCCCCCC=CCCCCCCCC
INCHIKEY: UMOAAMQGRRCHPA-UHFFFAOYSA-N
COMPOUNDCLASS: NALeu
RETENTIONTIME: 
COMMENT: 
Num Peaks: 3
394.332668	200
350.342839	100
130.087352	999

NAME: NALeu 18:1
PRECURSORMZ: 396.3472
PRECURSORTYPE: [M+H]+
IONMODE: Positive
FORMULA: C24H45NO3
SMILES: O=C(NC(C(=O)O)CC(C)C)CCCCCCCC=CCCCCCCCC
INCHIKEY: UMOAAMQGRRCHPA-UHFFFAOYSA-N
COMPOUNDCLASS: NALeu
RETENTIONTIME: 
COMMENT: 
Num Peaks: 3
396.347221	100
132.101905	500
86.096426	999

NAME: NALeu 18:1;O
PRECURSORMZ: 410.3276
PRECURSORTYPE: [M-H]-
IONMODE: Negative
FORMULA: C24H45NO4
SMILES: O=C(O)C(NC(=O)CC(O)CCCCCC=CCCCCCCCC)CC(C)C
INCHIKEY: MUIGIRMVUKZMSC-UHFFFAOYSA-N
COMPOUNDCLASS: NALeu
RETENTIONTIME: 
COMMENT: 
Num Peaks: 3
410.327583	200
366.337753	100
130.087352	999

NAME: NALeu 18:1;O
PRECURSORMZ: 412.3421
PRECURSORTYPE: [M+H]+
IONMODE: Positive
FORMULA: C24H45NO4
SMILES: O=C(O)C(NC(=O)CC(O)CCCCCC=CCCCCCCCC)CC(C)C
INCHIKEY: MUIGIRMVUKZMSC-UHFFFAOYSA-N
COMPOUNDCLASS: NALeu
RETENTIONTIME: 
COMMENT: 
Num Peaks: 4
412.342135	100
394.331571	100
132.101905	500
86.096426	999

NAME: NAOrn 16:0;O(FA 20:4)
PRECURSORMZ: 673.5514
PRECURSORTYPE: [M+H]+
IONMODE: Positive
FORMULA: C41H72N2O5
SMILES: O=C(OC(CCCCCCC(=O)NC(C(=O)O)CCCN)CCCCCCCC)CCCCCCC=CCC=CCC=CCC=CCC
INCHIKEY: JIMLHDNVQBWECP-UHFFFAOYSA-N
COMPOUNDCLASS: NAOrn
RETENTIONTIME: 
COMMENT: 
Num Peaks: 7
673.5514	300
369.31117	300
351.300605	500
237.221292	100
133.097154	50
115.086589	999
70.065126	500

NAME: NAOrn 18:1
PRECURSORMZ: 397.3425
PRECURSORTYPE: [M+H]+
IONMODE: Positive
FORMULA: C23H44N2O3
SMILES: O=C(NC(C(=O)O)CCCN)CCCCCCCC=CCCCCCCCC
INCHIKEY: TUILUNYVOJGATE-UHFFFAOYSA-N
COMPOUNDCLASS: NAOrn
RETENTIONTIME: 
COMMENT: 
Num Peaks: 3
397.34247	1
115.086589	800
70.065126	999

NAME: NAOrn 18:1;O
PRECURSORMZ: 413.3374
PRECURSORTYPE: [M+H]+
IONMODE: Positive
FORMULA: C23H44N2O4
SMILES: O=C(O)C(NC(=O)CC(O)CCCCCC=CCCCCCCCC)CCCN
INCHIKEY: BYNYKTZEQKBYPT-UHFFFAOYSA-N
COMPOUNDCLASS: NAOrn
RETENTIONTIME: 
COMMENT: 
Num Peaks: 4
413.337384	1
377.316255	100
115.086589	500
70.065126	999

NAME: NAPhe 18:1
PRECURSORMZ: 428.317
PRECURSORTYPE: [M-H]-
IONMODE: Negative
FORMULA: C27H43NO3
SMILES: O=C(O)C(NC(=O)CCCCCCCC=CCCCCCCCC)CC=1C=CC=CC1
INCHIKEY: UWKNPULCJWBBDD-UHFFFAOYSA-N
COMPOUNDCLASS: NAPhe
RETENTIONTIME: 
COMMENT: 
Num Peaks: 6
428.317018	200
280.264588	50
164.071702	999
147.045153	500
103.055324	200
91.055324	150

NAME: NAPhe 18:1
PRECURSORMZ: 430.3316
PRECURSORTYPE: [M+H]+
IONMODE: Positive
FORMULA: C27H43NO3
SMILES: O=C(O)C(NC(=O)CCCCCCCC=CCCCCCCCC)CC=1C=CC=CC1
INCHIKEY: UWKNPULCJWBBDD-UHFFFAOYSA-N
COMPOUNDCLASS: NAPhe
RETENTIONTIME: 
COMMENT: 
Num Peaks: 3
430.331571	1
166.086255	200
120.080776	999

NAME: NAPhe 18:1;O
PRECURSORMZ: 444.3119
PRECURSORTYPE: [M-H]-
IONMODE: Negative
FORMULA: C27H43NO4
SMILES: O=C(O)C(NC(=O)CC(O)CCCCCC=CCCCCCCCC)CC=1C=CC=CC1
INCHIKEY: PHFNWOCRNXCJBD-UHFFFAOYSA-N
COMPOUNDCLASS: NAPhe
RETENTIONTIME: 
COMMENT: 
Num Peaks: 7
444.311932	200
426.301368	500
278.248938	50
164.071702	999
147.045153	500
103.055324	200
91.055324	150

NAME: NAPhe 18:1;O
PRECURSORMZ: 446.3265
PRECURSORTYPE: [M+H]+
IONMODE: Positive
FORMULA: C27H43NO4
SMILES: O=C(O)C(NC(=O)CC(O)CCCCCC=CCCCCCCCC)CC=1C=CC=CC1
INCHIKEY: PHFNWOCRNXCJBD-UHFFFAOYSA-N
COMPOUNDCLASS: NAPhe
RETENTIONTIME: 
COMMENT: 
Num Peaks: 3
446.326485	1
166.086255	200
120.080776	999

NAME: NASer 18:1
PRECURSORMZ: 368.2806
PRECURSORTYPE: [M-H]-
IONMODE: Negative
FORMULA: C21H39NO4
SMILES: O=C(NC(C(=O)O)CO)CCCCCCCC=CCCCCCCCC
INCHIKEY: MBDKGXAMSZIDKF-UHFFFAOYSA-N
COMPOUNDCLASS: NASer
RETENTIONTIME: 
COMMENT: 
Num Peaks: 7
368.280632	500
338.270068	200
320.259503	200
306.280238	200
263.238039	100
104.035317	200
74.024752	999

NAME: NASer 18:1
PRECURSORMZ: 370.2952
PRECURSORTYPE: [M+H]+
IONMODE: Positive
FORMULA: C21H39NO4
SMILES: O=C(NC(C(=O)O)CO)CCCCCCCC=CCCCCCCCC
INCHIKEY: MBDKGXAMSZIDKF-UHFFFAOYSA-N
COMPOUNDCLASS: NASer
RETENTIONTIME: 
COMMENT: 
Num Peaks: 4
370.295185	100
106.04987	999
88.039305	200
60.04439	500

NAME: NASer 18:1;O
PRECURSORMZ: 384.2755
PRECURSORTYPE: [M-H]-
IONMODE: Negative
FORMULA: C21H39NO5
SMILES: O=C(O)C(NC(=O)CC(O)CCCCCC=CCCCCCCCC)CO
INCHIKEY: OHYFCLKRGBPEBR-UHFFFAOYSA-N
COMPOUNDCLASS: NASer
RETENTIONTIME: 
COMMENT: 
Num Peaks: 7
384.275547	500
354.264982	200
336.254418	200
322.275153	200
279.232954	100
104.035317	200
74.024752	999

NAME: NASer 18:1;O
PRECURSORMZ: 386.2901
PRECURSORTYPE: [M+H]+
IONMODE: Positive
FORMULA: C21H39NO5
SMILES: O=C(O)C(NC(=O)CC(O)CCCCCC=CCCCCCCCC)CO
INCHIKEY: OHYFCLKRGBPEBR-UHFFFAOYSA-N
COMPOUNDCLASS: NASer
RETENTIONTIME: 
COMMENT: 
Num Peaks: 5
386.2901	100
368.279535	100
106.04987	999
88.039305	200
60.04439	500

NAME: NATau 18:1
PRECURSORMZ: 388.2527
PRECURSORTYPE: [M-H]-
IONMODE: Negative
FORMULA: C20H39NO4S
SMILES: O=C(NCCS(=O)(=O)O)CCCCCCCC=CCCCCCCCC
INCHIKEY: KOGRJTUIKPMZEJ-UHFFFAOYSA-N
COMPOUNDCLASS: NATau
RETENTIONTIME: 
COMMENT: 
Num Peaks: 4
388.252703	999
124.007388	50
106.980839	50
79.957363	200

NAME: NATau 18:1
PRECURSORMZ: 390.2673
PRECURSORTYPE: [M+H]+
IONMODE: Positive
FORMULA: C20H39NO4S
SMILES: O=C(NCCS(=O)(=O)O)CCCCCCCC=CCCCCCCCC
INCHIKEY: KOGRJTUIKPMZEJ-UHFFFAOYSA-N
COMPOUNDCLASS: NATau
RETENTIONTIME: 
COMMENT: 
Num Peaks: 3
390.267256	1
265.252592	50
126.021941	999

NAME: NATau 18:1
PRECURSORMZ: 407.2938
PRECURSORTYPE: [M+NH4]+
IONMODE: Positive
FORMULA: C20H39NO4S
SMILES: O=C(NCCS(=O)(=O)O)CCCCCCCC=CCCCCCCCC
INCHIKEY: KOGRJTUIKPMZEJ-UHFFFAOYSA-N
COMPOUNDCLASS: NATau
RETENTIONTIME: 
COMMENT: 
Num Peaks: 4
407.293805	1
390.267256	1
265.252592	50
126.021941	999

NAME: NATau 18:1;O
PRECURSORMZ: 404.2476
PRECURSORTYPE: [M-H]-
IONMODE: Negative
FORMULA: C20H39NO5S
SMILES: O=C(NCCS(=O)(=O)O)CC(O)CCCCCC=CCCCCCCCC
INCHIKEY: UTUDITXRDPBGMX-UHFFFAOYSA-N
COMPOUNDCLASS: NATau
RETENTIONTIME: 
COMMENT: 
Num Peaks: 4
404.247618	500
124.007388	999
106.980839	50
79.957363	200

NAME: NATau 18:1;O
PRECURSORMZ: 406.2622
PRECURSORTYPE: [M+H]+
IONMODE: Positive
FORMULA: C20H39NO5S
SMILES: O=C(NCCS(=O)(=O)O)CC(O)CCCCCC=CCCCCCCCC
INCHIKEY: UTUDITXRDPBGMX-UHFFFAOYSA-N
COMPOUNDCLASS: NATau
RETENTIONTIME: 
COMMENT: 
Num Peaks: 3
406.262171	1
281.247507	50
126.021941	999

NAME: NATau 18:1;O
PRECURSORMZ: 423.2887
PRECURSORTYPE: [M+NH4]+
IONMODE: Positive
FORMULA: C20H39NO5S
SMILES: O=C(NCCS(=O)(=O)O)CC(O)CCCCCC=CCCCCCCCC
INCHIKEY: UTUDITXRDPBGMX-UHFFFAOYSA-N
COMPOUNDCLASS: NATau
RETENTIONTIME: 
COMMENT: 
Num Peaks: 4
423.28872	1
406.262171	1
281.247507	50
126.021941	999

NAME: NATryA 16:0;O(FA 20:4)
PRECURSORMZ: 699.547
PRECURSORTYPE: [M-H]-
IONMODE: Negative
FORMULA: C46H72N2O3
SMILES: O=C(OC(CCCCCCC(=O)NCCC1=CNC=2C=CC=CC21)CCCCCCCC)CCCCCCC=CCC=CCC=CCC=CCC
INCHIKEY: RLOAIIZFSDJROA-UHFFFAOYSA-N
COMPOUNDCLASS: NATryA
RETENTIONTIME: 
COMMENT: 
Num Peaks: 3
699.547018	500
413.317352	999
303.232954	800

NAME: NATryA 16:0;O(FA 20:4)
PRECURSORMZ: 701.5616
PRECURSORTYPE: [M+H]+
IONMODE: Positive
FORMULA: C46H72N2O3
SMILES: O=C(OC(CCCCCCC(=O)NCCC1=CNC=2C=CC=CC21)CCCCCCCC)CCCCCCC=CCC=CCC=CCC=CCC
INCHIKEY: RLOAIIZFSDJROA-UHFFFAOYSA-N
COMPOUNDCLASS: NATryA
RETENTIONTIME: 
COMMENT: 
Num Peaks: 3
701.561571	200
415.331905	200
144.080776	999

NAME: NATryA 18:1
PRECURSORMZ: 469.3436
PRECURSORTYPE: [M+HCOO]-
IONMODE: Negative
FORMULA: C28H44N2O
SMILES: O=C(NCCC1=CNC=2C=CC=CC21)CCCCCCCC=CCCCCCCCC
INCHIKEY: PCWBOIFPMNXRRD-UHFFFAOYSA-N
COMPOUNDCLASS: NATryA
RETENTIONTIME: 
COMMENT: 
Num Peaks: 5
469.343567	5
423.338088	999
280.264588	600
159.092772	100
130.066223	100

NAME: NATryA 18:1
PRECURSORMZ: 483.3592
PRECURSORTYPE: [M+CH3COO]-
IONMODE: Negative
FORMULA: C28H44N2O
SMILES: O=C(NCCC1=CNC=2C=CC=CC21)CCCCCCCC=CCCCCCCCC
INCHIKEY: PCWBOIFPMNXRRD-UHFFFAOYSA-N
COMPOUNDCLASS: NATryA
RETENTIONTIME: 
COMMENT: 
Num Peaks: 5
483.359217	5
423.338088	999
280.264588	600
159.092772	100
130.066223	100

NAME: NATryA 18:1
PRECURSORMZ: 423.3381
PRECURSORTYPE: [M-H]-
IONMODE: Negative
FORMULA: C28H44N2O
SMILES: O=C(NCCC1=CNC=2C=CC=CC21)CCCCCCCC=CCCCCCCCC
INCHIKEY: PCWBOIFPMNXRRD-UHFFFAOYSA-N
COMPOUNDCLASS: NATryA
RETENTIONTIME: 
COMMENT: 
Num Peaks: 4
423.338088	999
280.264588	600
159.092772	100
130.066223	100

NAME: NATryA 18:1
PRECURSORMZ: 425.3526
PRECURSORTYPE: [M+H]+
IONMODE: Positive
FORMULA: C28H44N2O
SMILES: O=C(NCCC1=CNC=2C=CC=CC21)CCCCCCCC=CCCCCCCCC
INCHIKEY: PCWBOIFPMNXRRD-UHFFFAOYSA-N
COMPOUNDCLASS: NATryA
RETENTIONTIME: 
COMMENT: 
Num Peaks: 3
425.35264	200
161.107325	50
144.080776	999

NAME: NATryA 18:1;O
PRECURSORMZ: 485.3385
PRECURSORTYPE: [M+HCOO]-
IONMODE: Negative
FORMULA: C28H44N2O2
SMILES: O=C(NCCC1=CNC=2C=CC=CC21)CC(O)CCCCCC=CCCCCCCCC
INCHIKEY: OWSJTOUIRUNWQY-UHFFFAOYSA-N
COMPOUNDCLASS: NATryA
RETENTIONTIME: 
COMMENT: 
Num Peaks: 7
485.338482	5
439.333002	999
296.259503	50
278.248938	200
159.092772	50
142.066223	50
130.066223	50

NAME: NATryA 18:1;O
PRECURSORMZ: 499.3541
PRECURSORTYPE: [M+CH3COO]-
IONMODE: Negative
FORMULA: C28H44N2O2
SMILES: O=C(NCCC1=CNC=2C=CC=CC21)CC(O)CCCCCC=CCCCCCCCC
INCHIKEY: OWSJTOUIRUNWQY-UHFFFAOYSA-N
COMPOUNDCLASS: NATryA
RETENTIONTIME: 
COMMENT: 
Num Peaks: 7
499.354132	5
439.333002	999
296.259503	50
278.248938	200
159.092772	50
142.066223	50
130.066223	50

NAME: NATryA 18:1;O
PRECURSORMZ: 439.333
PRECURSORTYPE: [M-H]-
IONMODE: Negative
FORMULA: C28H44N2O2
SMILES: O=C(NCCC1=CNC=2C=CC=CC21)CC(O)CCCCCC=CCCCCCCCC
INCHIKEY: OWSJTOUIRUNWQY-UHFFFAOYSA-N
COMPOUNDCLASS: NATryA
RETENTIONTIME: 
COMMENT: 
Num Peaks: 6
439.333002	999
296.259503	50
278.248938	200
159.092772	50
142.066223	50
130.066223	50

NAME: NATryA 18:1;O
PRECURSORMZ: 441.3476
PRECURSORTYPE: [M+H]+
IONMODE: Positive
FORMULA: C28H44N2O2
SMILES: O=C(NCCC1=CNC=2C=CC=CC21)CC(O)CCCCCC=CCCCCCCCC
INCHIKEY: OWSJTOUIRUNWQY-UHFFFAOYSA-N
COMPOUNDCLASS: NATryA
RETENTIONTIME: 
COMMENT: 
Num Peaks: 4
441.347555	200
423.33699	50
161.107325	50
144.080776	999

NAME: NAVal 18:1
PRECURSORMZ: 380.317
PRECURSORTYPE: [M-H]-
IONMODE: Negative
FORMULA: C23H43NO3
SMILES: O=C(NC(C(=O)O)C(C)C)CCCCCCCC=CCCCCCCCC
INCHIKEY: LRQPUGFHAACUMH-UHFFFAOYSA-N
COMPOUNDCLASS: NAVal
RETENTIONTIME: 
COMMENT: 
Num Peaks: 3
380.317018	400
336.327189	150
116.071702	999

NAME: NAVal 18:1
PRECURSORMZ: 382.3316
PRECURSORTYPE: [M+H]+
IONMODE: Positive
FORMULA: C23H43NO3
SMILES: O=C(NC(C(=O)O)C(C)C)CCCCCCCC=CCCCCCCCC
INCHIKEY: LRQPUGFHAACUMH-UHFFFAOYSA-N
COMPOUNDCLASS: NAVal
RETENTIONTIME: 
COMMENT: 
Num Peaks: 3
382.331571	50
118.086255	500
72.080776	999

NAME: NAVal 18:1;O
PRECURSORMZ: 396.3119
PRECURSORTYPE: [M-H]-
IONMODE: Negative
FORMULA: C23H43NO4
SMILES: O=C(O)C(NC(=O)CC(O)CCCCCC=CCCCCCCCC)C(C)C
INCHIKEY: XJKRNTJJJQWZIB-UHFFFAOYSA-N
COMPOUNDCLASS: NAVal
RETENTIONTIME: 
COMMENT: 
Num Peaks: 3
396.311932	400
352.322103	150
116.071702	999

NAME: NAVal 18:1;O
PRECURSORMZ: 398.3265
PRECURSORTYPE: [M+H]+
IONMODE: Positive
FORMULA: C23H43NO4
SMILES: O=C(O)C(NC(=O)CC(O)CCCCCC=CCCCCCCCC)C(C)C
INCHIKEY: XJKRNTJJJQWZIB-UHFFFAOYSA-N
COMPOUNDCLASS: NAVal
RETENTIONTIME: 
COMMENT: 
Num Peaks: 4
398.326485	50
380.315921	100
118.086255	500
72.080776	999

NAME: FA 18:1;O
PRECURSORMZ: 297.2435
PRECURSORTYPE: [M-H]-
IONMODE: Negative
FORMULA: C18H34O3
SMILES: O=C(O)CCCCCCC(O)C=CCCCCCCCC
INCHIKEY: JEXIZLHRWZNJIX-UHFFFAOYSA-N
COMPOUNDCLASS: OxFA
RETENTIONTIME: 
COMMENT: 
Num Peaks: 1
297.243519	999

NAME: FA 18:1;O2
PRECURSORMZ: 313.2384
PRECURSORTYPE: [M-H]-
IONMODE: Negative
FORMULA: C18H34O4
SMILES: O=C(O)CCCCCC(O)C=CC(O)CCCCCCCC
INCHIKEY: IPRLELFMTNDNMN-UHFFFAOYSA-N
COMPOUNDCLASS: OxFA
RETENTIONTIME: 
COMMENT: 
Num Peaks: 1
313.238433	999

NAME: FA 18:1;O3
PRECURSORMZ: 329.2333
PRECURSORTYPE: [M-H]-
IONMODE: Negative
FORMULA: C18H34O5
SMILES: O=C(O)CCCC(O)CCC(O)C=CCC(O)CCCCCC
INCHIKEY: LGADJSRSYLFTSG-UHFFFAOYSA-N
COMPOUNDCLASS: OxFA
RETENTIONTIME: 
COMMENT: 
Num Peaks: 1
329.233348	999

NAME: FA 18:1;O4
PRECURSORMZ: 345.2283
PRECURSORTYPE: [M-H]-
IONMODE: Negative
FORMULA: C18H34O6
SMILES: O=C(O)CCCC(O)CCC(O)C=CCC(O)CCCCCCO
INCHIKEY: QMAJONTWZZCXBH-UHFFFAOYSA-N
COMPOUNDCLASS: OxFA
RETENTIONTIME: 
COMMENT: 
Num Peaks: 1
345.228262	999

NAME: WE 20:4/16:0
PRECURSORMZ: 546.5245
PRECURSORTYPE: [M+NH4]+
IONMODE: Positive
FORMULA: C36H64O2
SMILES: O=C(OCCCCCCCC=CCC=CCC=CCC=CCC)CCCCCCCCCCCCCCC
INCHIKEY: CLQLUQCAYZNMBE-UHFFFAOYSA-N
COMPOUNDCLASS: WE
RETENTIONTIME: 
COMMENT: 
Num Peaks: 3
546.524457	10
529.497908	10
257.247507	999

